Fe8 Se8                                 
   1.00000000000000     
     4.6724809700701364   -5.4717961293735220   -0.0000000000000000
     4.6724809700701364    5.4717961293735220    0.0000000000000000
     0.0000000000000000    0.0000000000000000    5.2802722996038840
   Fe   Se
     8     8
Direct
  0.0000000000000000  0.0000000000000000  0.0000000000000000
  0.0000000000000000  0.5000000000000000  0.0000000000000000
  0.5000000000000000  0.0000000000000000  0.0000000000000000
  0.5000000000000000  0.5000000000000000  0.0000000000000000
  0.2500000000000000  0.2500000000000000  0.0000000000000000
  0.2500000000000000  0.7500000000000000  0.0000000000000000
  0.7500000000000000  0.2500000000000000  0.0000000000000000
  0.7500000000000000  0.7500000000000000  0.0000000000000000
  0.3750000000000000  0.1250000000000000  0.6563961831259919
  0.3750000000000000  0.6250000000000000  0.6563961831259919
  0.8750000000000000  0.1250000000000000  0.6563961831259919
  0.8750000000000000  0.6250000000000000  0.6563961831259919
  0.1250000000000000  0.3750000000000000  0.3436038168740081
  0.1250000000000000  0.8750000000000000  0.3436038168740081
  0.6250000000000000  0.3750000000000000  0.3436038168740081
  0.6250000000000000  0.8750000000000000  0.3436038168740081
 
  0.00000000E+00  0.00000000E+00  0.00000000E+00
  0.00000000E+00  0.00000000E+00  0.00000000E+00
  0.00000000E+00  0.00000000E+00  0.00000000E+00
  0.00000000E+00  0.00000000E+00  0.00000000E+00
  0.00000000E+00  0.00000000E+00  0.00000000E+00
  0.00000000E+00  0.00000000E+00  0.00000000E+00
  0.00000000E+00  0.00000000E+00  0.00000000E+00
  0.00000000E+00  0.00000000E+00  0.00000000E+00
  0.00000000E+00  0.00000000E+00  0.00000000E+00
  0.00000000E+00  0.00000000E+00  0.00000000E+00
  0.00000000E+00  0.00000000E+00  0.00000000E+00
  0.00000000E+00  0.00000000E+00  0.00000000E+00
  0.00000000E+00  0.00000000E+00  0.00000000E+00
  0.00000000E+00  0.00000000E+00  0.00000000E+00
  0.00000000E+00  0.00000000E+00  0.00000000E+00
  0.00000000E+00  0.00000000E+00  0.00000000E+00
