Fe8 Se8
1.0
   4.6746526196844922   -5.4033086428697024    0.0000000000000000
   4.6746526196844922    5.4033086428697024    0.0000000000000000
   0.0000000000000000    0.0000000000000000    5.3447162005943385
Fe Se
8 8
direct
   0.0000000000000000    0.0000000000000000    0.0000000000000000 Fe
   0.0000000000000000    0.5000000000000000    0.0000000000000000 Fe
   0.5000000000000000    0.0000000000000000    0.0000000000000000 Fe
   0.5000000000000000    0.5000000000000000    0.0000000000000000 Fe
   0.2500000000000000    0.2500000000000000    0.0000000000000000 Fe
   0.2500000000000000    0.7500000000000000    0.0000000000000000 Fe
   0.7500000000000000    0.2500000000000000    0.0000000000000000 Fe
   0.7500000000000000    0.7500000000000000    0.0000000000000000 Fe
   0.3750000000000000    0.1250000000000000    0.6605382473225916 Se
   0.3750000000000000    0.6250000000000000    0.6605382473225916 Se
   0.8750000000000000    0.1250000000000000    0.6605382473225916 Se
   0.8750000000000000    0.6250000000000000    0.6605382473225916 Se
   0.1250000000000000    0.3750000000000000    0.3394617526774084 Se
   0.1250000000000000    0.8750000000000000    0.3394617526774084 Se
   0.6250000000000000    0.3750000000000000    0.3394617526774084 Se
   0.6250000000000000    0.8750000000000000    0.3394617526774084 Se
