Fe9 Pt3                                 
   1.00000000000000     
     3.7632096248864575    0.0000000000000000    0.0000000000000000
     0.0000000000000000    3.7632096248864575    0.0000000000000000
     0.0000000000000000    0.0000000000000000   11.5098796549264257
  Fe              Pt            
     9     3
Direct
  0.0000000000000000  0.5000000000000000  0.1667810252653297
  0.0000000000000000  0.5000000000000000  0.4996593107375489
  0.0000000000000000  0.5000000000000000  0.8335537861517537
  0.5000000000000000  0.5000000000000000  0.0089832089965753
  0.5000000000000000  0.5000000000000000  0.3244669926395360
  0.5000000000000000  0.5000000000000000  0.6665584453547808
  0.5000000000000000  0.0000000000000000  0.1667810252653297
  0.5000000000000000  0.0000000000000000  0.4996593107375489
  0.5000000000000000  0.0000000000000000  0.8335537861517537
  0.0000000000000000  0.0000000000000000  0.9970729049284586
  0.0000000000000000  0.0000000000000000  0.3363175032581296
  0.0000000000000000  0.0000000000000000  0.6666127005132410
 
  0.00000000E+00  0.00000000E+00  0.00000000E+00
  0.00000000E+00  0.00000000E+00  0.00000000E+00
  0.00000000E+00  0.00000000E+00  0.00000000E+00
  0.00000000E+00  0.00000000E+00  0.00000000E+00
  0.00000000E+00  0.00000000E+00  0.00000000E+00
  0.00000000E+00  0.00000000E+00  0.00000000E+00
  0.00000000E+00  0.00000000E+00  0.00000000E+00
  0.00000000E+00  0.00000000E+00  0.00000000E+00
  0.00000000E+00  0.00000000E+00  0.00000000E+00
  0.00000000E+00  0.00000000E+00  0.00000000E+00
  0.00000000E+00  0.00000000E+00  0.00000000E+00
  0.00000000E+00  0.00000000E+00  0.00000000E+00
