Fe8 Se8                                 
   1.00000000000000     
     4.6926967718232175   -5.4714916933094226   -0.0000000000000000
     4.6926967718232175    5.4714916933094226    0.0000000000000000
     0.0000000000000000    0.0000000000000000    5.3941315901199278
   Fe   Se
     8     8
Direct
  0.0000000000000000  0.0000000000000000 -0.0000000000000000
  0.0000000000000000  0.5000000000000000 -0.0000000000000000
  0.5000000000000000  0.0000000000000000 -0.0000000000000000
  0.5000000000000000  0.5000000000000000 -0.0000000000000000
  0.2500000000000000  0.2500000000000000 -0.0000000000000000
  0.2500000000000000  0.7500000000000000 -0.0000000000000000
  0.7500000000000000  0.2500000000000000 -0.0000000000000000
  0.7500000000000000  0.7500000000000000 -0.0000000000000000
  0.3750000000000000  0.1250000000000000  0.6620987846552147
  0.3750000000000000  0.6250000000000000  0.6620987846552147
  0.8750000000000000  0.1250000000000000  0.6620987846552147
  0.8750000000000000  0.6250000000000000  0.6620987846552147
  0.1250000000000000  0.3750000000000000  0.3379012153447853
  0.1250000000000000  0.8750000000000000  0.3379012153447853
  0.6250000000000000  0.3750000000000000  0.3379012153447853
  0.6250000000000000  0.8750000000000000  0.3379012153447853
 
  0.00000000E+00  0.00000000E+00  0.00000000E+00
  0.00000000E+00  0.00000000E+00  0.00000000E+00
  0.00000000E+00  0.00000000E+00  0.00000000E+00
  0.00000000E+00  0.00000000E+00  0.00000000E+00
  0.00000000E+00  0.00000000E+00  0.00000000E+00
  0.00000000E+00  0.00000000E+00  0.00000000E+00
  0.00000000E+00  0.00000000E+00  0.00000000E+00
  0.00000000E+00  0.00000000E+00  0.00000000E+00
  0.00000000E+00  0.00000000E+00  0.00000000E+00
  0.00000000E+00  0.00000000E+00  0.00000000E+00
  0.00000000E+00  0.00000000E+00  0.00000000E+00
  0.00000000E+00  0.00000000E+00  0.00000000E+00
  0.00000000E+00  0.00000000E+00  0.00000000E+00
  0.00000000E+00  0.00000000E+00  0.00000000E+00
  0.00000000E+00  0.00000000E+00  0.00000000E+00
  0.00000000E+00  0.00000000E+00  0.00000000E+00
