Fe8 Se8
1.0
   4.7074658814262555   -5.4446220203246192    0.0000000000000000
   4.7074658814262555    5.4446220203246192    0.0000000000000000
   0.0000000000000000    0.0000000000000000    5.4037451290068033
Fe Se
8 8
direct
   0.0000000000000000    0.0000000000000000    0.0000000000000000 Fe
   0.0000000000000000    0.5000000000000000    0.0000000000000000 Fe
   0.5000000000000000    0.0000000000000000    0.0000000000000000 Fe
   0.5000000000000000    0.5000000000000000    0.0000000000000000 Fe
   0.2500000000000000    0.2500000000000000    0.0000000000000000 Fe
   0.2500000000000000    0.7500000000000000    0.0000000000000000 Fe
   0.7500000000000000    0.2500000000000000    0.0000000000000000 Fe
   0.7500000000000000    0.7500000000000000    0.0000000000000000 Fe
   0.3750000000000000    0.1250000000000000    0.6641836272632062 Se
   0.3750000000000000    0.6250000000000000    0.6641836272632062 Se
   0.8750000000000000    0.1250000000000000    0.6641836272632062 Se
   0.8750000000000000    0.6250000000000000    0.6641836272632062 Se
   0.1250000000000000    0.3750000000000000    0.3358163727367938 Se
   0.1250000000000000    0.8750000000000000    0.3358163727367938 Se
   0.6250000000000000    0.3750000000000000    0.3358163727367938 Se
   0.6250000000000000    0.8750000000000000    0.3358163727367938 Se
