Fe9 Pt3                                 
   1.00000000000000     
     3.9475872854190097    0.0000000000000000    0.0000000000000000
     0.0000000000000000    3.6755119342284566    0.0000000000000000
     0.0000000000000000    0.0000000000000000   11.6476181871751088
  Fe              Pt            
     9     3
Direct
  0.0000000000000000  0.5000000000000000  0.1666518914710551
  0.0000000000000000  0.5000000000000000  0.4993359052234894
  0.0000000000000000  0.5000000000000000  0.8340182373333462
  0.5000000000000000  0.5000000000000000  0.0032067444770689
  0.5000000000000000  0.5000000000000000  0.3300814347485712
  0.5000000000000000  0.5000000000000000  0.6667055294190476
  0.5000000000000000  0.0000000000000000  0.1666497137809486
  0.5000000000000000  0.0000000000000000  0.4978595300671032
  0.5000000000000000  0.0000000000000000  0.8354908863906516
  0.0000000000000000  0.0000000000000000  0.0058386644701542
  0.0000000000000000  0.0000000000000000  0.3274779306412228
  0.0000000000000000  0.0000000000000000  0.6666835319773483
 
  0.00000000E+00  0.00000000E+00  0.00000000E+00
  0.00000000E+00  0.00000000E+00  0.00000000E+00
  0.00000000E+00  0.00000000E+00  0.00000000E+00
  0.00000000E+00  0.00000000E+00  0.00000000E+00
  0.00000000E+00  0.00000000E+00  0.00000000E+00
  0.00000000E+00  0.00000000E+00  0.00000000E+00
  0.00000000E+00  0.00000000E+00  0.00000000E+00
  0.00000000E+00  0.00000000E+00  0.00000000E+00
  0.00000000E+00  0.00000000E+00  0.00000000E+00
  0.00000000E+00  0.00000000E+00  0.00000000E+00
  0.00000000E+00  0.00000000E+00  0.00000000E+00
  0.00000000E+00  0.00000000E+00  0.00000000E+00
