ALGO = All
EDIFF = 1e-06
EDIFFG = -0.01
ENCUT = 520
GGA = Pe
IBRION = 2
ISIF = 4
ISMEAR = 1
ISPIN = 2
KPAR = 4
LCHARG = True
LORBIT = 11
LREAL = False
LWAVE = False
MAGMOM = 1*-2.791 2*2.974 2*2.783 1*2.924 1*2.584 2*2.841 2*0.124 1*0.303
NELM = 200
NSW = 100
PREC = Accurate
SIGMA = 0.2
