ALGO = Normal
EDIFF = 1e-06
EDIFFG = -0.01
ENCUT = 520
GGA = Pe
IBRION = -1
ISIF = 4
ISMEAR = -5
ISPIN = 2
KPAR = 4
LCHARG = True
LORBIT = 11
LREAL = False
LWAVE = False
MAGMOM = 1*-2.749 2*2.944 2*2.758 1*2.899 1*2.558 2*2.814 1*0.123 1*0.124 1*0.303
NELM = 200
NSW = 0
PREC = Accurate
SIGMA = 0.2
