Fe9 Pt3                                 
   1.00000000000000     
     3.6600818315954489    0.0000000000000000    0.0000000000000000
     0.0000000000000000    3.6601166760844719    0.0000000000000000
     0.0000000000000000    0.0000000000000000   11.0478047450920567
  Fe              Pt            
     9     3
Direct
  0.0000000000000000  0.5000000000000000  0.1666603177055137
  0.0000000000000000  0.5000000000000000  0.4993443068232395
  0.0000000000000000  0.5000000000000000  0.8339944271084718
  0.5000000000000000  0.5000000000000000  0.9949477166509411
  0.5000000000000000  0.5000000000000000  0.3383994806192803
  0.5000000000000000  0.5000000000000000  0.6666643420414005
  0.5000000000000000  0.0000000000000000  0.1666602353205917
  0.5000000000000000  0.0000000000000000  0.4993357902539586
  0.5000000000000000  0.0000000000000000  0.8340030088921111
  0.0000000000000000  0.0000000000000000  0.0042627526235464
  0.0000000000000000  0.0000000000000000  0.3290563033430161
  0.0000000000000000  0.0000000000000000  0.6666713186179294
 
  0.00000000E+00  0.00000000E+00  0.00000000E+00
  0.00000000E+00  0.00000000E+00  0.00000000E+00
  0.00000000E+00  0.00000000E+00  0.00000000E+00
  0.00000000E+00  0.00000000E+00  0.00000000E+00
  0.00000000E+00  0.00000000E+00  0.00000000E+00
  0.00000000E+00  0.00000000E+00  0.00000000E+00
  0.00000000E+00  0.00000000E+00  0.00000000E+00
  0.00000000E+00  0.00000000E+00  0.00000000E+00
  0.00000000E+00  0.00000000E+00  0.00000000E+00
  0.00000000E+00  0.00000000E+00  0.00000000E+00
  0.00000000E+00  0.00000000E+00  0.00000000E+00
  0.00000000E+00  0.00000000E+00  0.00000000E+00
