ALGO = Normal
EDIFF = 1e-06
EDIFFG = -0.01
ENCUT = 520
GGA = Pe
IBRION = -1
ISIF = 4
ISMEAR = -5
ISPIN = 2
KPAR = 4
LCHARG = True
LORBIT = 11
LREAL = False
LWAVE = False
MAGMOM = 1*-2.233 2*2.517 2*2.388 1*2.621 1*-2.233 2*2.517 2*0.046 1*0.281
NELM = 200
NSW = 0
PREC = Accurate
SIGMA = 0.2
SYMPREC = 9.999999999999999e-05
