Fe8 Se8                                 
   1.00000000000000     
     4.8661315216658734   -5.7936973918531862    0.0000000000000000
     4.8661315216658734    5.7936973918531862    0.0000000000000000
     0.0000000000000000    0.0000000000000000    5.7815988262523668
   Fe   Se
     8     8
Direct
  0.0000000000000000  0.0000000000000000  0.0000000000000000
  0.0000000000000000  0.5000000000000000  0.0000000000000000
  0.5000000000000000  0.0000000000000000  0.0000000000000000
  0.5000000000000000  0.5000000000000000  0.0000000000000000
  0.2500000000000000  0.2500000000000000  0.0000000000000000
  0.2500000000000000  0.7500000000000000  0.0000000000000000
  0.7500000000000000  0.2500000000000000  0.0000000000000000
  0.7500000000000000  0.7500000000000000  0.0000000000000000
  0.3750000000000000  0.1250000000000000  0.6918887928268589
  0.3750000000000000  0.6250000000000000  0.6918887928268589
  0.8750000000000000  0.1250000000000000  0.6918887928268589
  0.8750000000000000  0.6250000000000000  0.6918887928268589
  0.1250000000000000  0.3750000000000000  0.3081112071731411
  0.1250000000000000  0.8750000000000000  0.3081112071731411
  0.6250000000000000  0.3750000000000000  0.3081112071731411
  0.6250000000000000  0.8750000000000000  0.3081112071731411
 
  0.00000000E+00  0.00000000E+00  0.00000000E+00
  0.00000000E+00  0.00000000E+00  0.00000000E+00
  0.00000000E+00  0.00000000E+00  0.00000000E+00
  0.00000000E+00  0.00000000E+00  0.00000000E+00
  0.00000000E+00  0.00000000E+00  0.00000000E+00
  0.00000000E+00  0.00000000E+00  0.00000000E+00
  0.00000000E+00  0.00000000E+00  0.00000000E+00
  0.00000000E+00  0.00000000E+00  0.00000000E+00
  0.00000000E+00  0.00000000E+00  0.00000000E+00
  0.00000000E+00  0.00000000E+00  0.00000000E+00
  0.00000000E+00  0.00000000E+00  0.00000000E+00
  0.00000000E+00  0.00000000E+00  0.00000000E+00
  0.00000000E+00  0.00000000E+00  0.00000000E+00
  0.00000000E+00  0.00000000E+00  0.00000000E+00
  0.00000000E+00  0.00000000E+00  0.00000000E+00
  0.00000000E+00  0.00000000E+00  0.00000000E+00
