CoNiV                                   
   3.47900000000000     
     1.1708713026916102    0.0000000000000000   -0.0016357301177445
     0.0000000000000000    1.3477008610676955    0.0000000000000000
    -0.0023169642200206    0.0000000000000000    1.6553489410360804
   Co   Ni
     6     6
Direct
  0.8338271713397631  0.2500000000000000  0.3363085991168759
  0.8338271713397631  0.7500000000000000  0.3363085991168759
  0.1656934569429609  0.2500000000000000  0.6650062843049156
  0.1656934569429609  0.7500000000000000  0.6650062843049156
  0.6669476318554146  0.0000000000000000  0.6654733419784762
  0.6669476318554146  0.5000000000000000  0.6654733419784762
  0.5005159157374521  0.2500000000000000  0.9993804785541869
  0.5005159157374521  0.7500000000000000  0.9993804785541869
  0.9998696349894871  0.0000000000000000  0.9991354888477630
  0.9998696349894871  0.5000000000000000  0.9991354888477630
  0.3331461891349221  0.0000000000000000  0.3346958071977753
  0.3331461891349221  0.5000000000000000  0.3346958071977753
 
  0.00000000E+00  0.00000000E+00  0.00000000E+00
  0.00000000E+00  0.00000000E+00  0.00000000E+00
  0.00000000E+00  0.00000000E+00  0.00000000E+00
  0.00000000E+00  0.00000000E+00  0.00000000E+00
  0.00000000E+00  0.00000000E+00  0.00000000E+00
  0.00000000E+00  0.00000000E+00  0.00000000E+00
  0.00000000E+00  0.00000000E+00  0.00000000E+00
  0.00000000E+00  0.00000000E+00  0.00000000E+00
  0.00000000E+00  0.00000000E+00  0.00000000E+00
  0.00000000E+00  0.00000000E+00  0.00000000E+00
  0.00000000E+00  0.00000000E+00  0.00000000E+00
  0.00000000E+00  0.00000000E+00  0.00000000E+00
