Fe8 Se8                                 
   1.00000000000000     
     4.7147066748650204   -5.4496060771705075    0.0000000000000000
     4.7147066748650204    5.4496060771705075    0.0000000000000000
     0.0000000000000000    0.0000000000000000    5.3905115943999462
   Fe   Se
     8     8
Direct
  0.0000000000000000  0.0000000000000000  0.0000000000000000
  0.0000000000000000  0.5000000000000000  0.0000000000000000
  0.5000000000000000  0.0000000000000000  0.0000000000000000
  0.5000000000000000  0.5000000000000000  0.0000000000000000
  0.2500000000000000  0.2500000000000000  0.0000000000000000
  0.2500000000000000  0.7500000000000000  0.0000000000000000
  0.7500000000000000  0.2500000000000000  0.0000000000000000
  0.7500000000000000  0.7500000000000000  0.0000000000000000
  0.3750000000000000  0.1250000000000000  0.6605382473225916
  0.3750000000000000  0.6250000000000000  0.6605382473225916
  0.8750000000000000  0.1250000000000000  0.6605382473225916
  0.8750000000000000  0.6250000000000000  0.6605382473225916
  0.1250000000000000  0.3750000000000000  0.3394617526774084
  0.1250000000000000  0.8750000000000000  0.3394617526774084
  0.6250000000000000  0.3750000000000000  0.3394617526774084
  0.6250000000000000  0.8750000000000000  0.3394617526774084
 
  0.00000000E+00  0.00000000E+00  0.00000000E+00
  0.00000000E+00  0.00000000E+00  0.00000000E+00
  0.00000000E+00  0.00000000E+00  0.00000000E+00
  0.00000000E+00  0.00000000E+00  0.00000000E+00
  0.00000000E+00  0.00000000E+00  0.00000000E+00
  0.00000000E+00  0.00000000E+00  0.00000000E+00
  0.00000000E+00  0.00000000E+00  0.00000000E+00
  0.00000000E+00  0.00000000E+00  0.00000000E+00
  0.00000000E+00  0.00000000E+00  0.00000000E+00
  0.00000000E+00  0.00000000E+00  0.00000000E+00
  0.00000000E+00  0.00000000E+00  0.00000000E+00
  0.00000000E+00  0.00000000E+00  0.00000000E+00
  0.00000000E+00  0.00000000E+00  0.00000000E+00
  0.00000000E+00  0.00000000E+00  0.00000000E+00
  0.00000000E+00  0.00000000E+00  0.00000000E+00
  0.00000000E+00  0.00000000E+00  0.00000000E+00
