ALGO = Fast
EDIFF = 0.0002
ENCUT = 550
IBRION = 2
ISMEAR = 0
ISPIN = 2
LASPH = True
LMAXMIX = 4
LORBIT = 11
LREAL = Auto
LWAVE = False
NELM = 100
NSW = 99
PREC = Accurate
SIGMA = 0.05
ISIF = 4
MAGMOM = 5 -5 -5 5 5 -5 -5 5 0 0 0 0 0 0 0 0

IVDW = 13