Fe8 Se8
1.0
   4.4121759999999997   -5.4159879999999996    0.0000000000000000
   4.4121759999999997    5.4159879999999996    0.0000000000000000
   0.0000000000000000    0.0000000000000000    7.1404790000000000
Fe Se
8 8
direct
   0.0000000000000000    0.0000000000000000    0.0000000000000000 Fe
   0.0000000000000000    0.5000000000000000    0.0000000000000000 Fe
   0.5000000000000000    0.0000000000000000    0.0000000000000000 Fe
   0.4999999999999999    0.5000000000000000    0.0000000000000000 Fe
   0.2500000000000000    0.2500000000000000    0.0000000000000000 Fe
   0.2499999999999999    0.7500000000000000    0.0000000000000000 Fe
   0.7500000000000000    0.2500000000000000    0.0000000000000000 Fe
   0.7499999999999999    0.7500000000000000    0.0000000000000000 Fe
   0.3750000000000000    0.1250000000000000    0.7435480000000000 Se
   0.3749999999999999    0.6250000000000000    0.7435480000000000 Se
   0.8750000000000000    0.1250000000000000    0.7435480000000000 Se
   0.8749999999999999    0.6250000000000000    0.7435480000000000 Se
   0.1250000000000000    0.3750000000000000    0.2564520000000000 Se
   0.1249999999999999    0.8750000000000000    0.2564520000000000 Se
   0.6250000000000000    0.3750000000000000    0.2564520000000000 Se
   0.6249999999999999    0.8750000000000000    0.2564520000000000 Se
