ALGO = Normal
EDIFF = 1e-06
EDIFFG = -0.01
ENCUT = 520
GGA = Pe
IBRION = -1
ISIF = 4
ISMEAR = -5
ISPIN = 2
KPAR = 4
LCHARG = True
LORBIT = 11
LREAL = False
LWAVE = False
MAGMOM = 1*-2.331 1*2.216 1*2.214 1*-2.326 1*-2.327 1*2.361 1*-2.331 1*2.216 1*2.214 2*-0.087 1*0.184
NELM = 200
NSW = 0
PREC = Accurate
SIGMA = 0.2
