ALGO = All
EDIFF = 1e-06
EDIFFG = -0.01
ENCUT = 520
GGA = Pe
IBRION = 2
ISIF = 4
ISMEAR = 1
ISPIN = 2
KPAR = 4
LCHARG = True
LORBIT = 11
LREAL = False
LWAVE = False
MAGMOM = 1*-2.331 1*2.215 1*2.213 1*-2.325 1*-2.326 1*2.361 1*-2.331 1*2.215 1*2.213 2*-0.087 1*0.184
NELM = 200
NSW = 100
PREC = Accurate
SIGMA = 0.2
