ALGO = All
EDIFF = 1e-06
EDIFFG = -0.01
ENCUT = 520
GGA = Pe
IBRION = 2
ISIF = 4
ISMEAR = 1
ISPIN = 2
KPAR = 4
LCHARG = True
LORBIT = 11
LREAL = False
LWAVE = False
MAGMOM = 1*-2.393 2*2.288 1*-2.419 1*-2.418 1*2.476 1*-2.393 2*2.288 2*-0.094 1*0.194
NELM = 200
NSW = 100
PREC = Accurate
SIGMA = 0.2
