Fe9 Pt3                                 
   1.00000000000000     
     3.7853852715479235    0.0000000000000000    0.0000000000000000
     0.0000000000000000    3.7853852715479235    0.0000000000000000
     0.0000000000000000    0.0000000000000000   11.5847832345951574
  Fe              Pt            
     9     3
Direct
  0.0000000000000000  0.5000000000000000  0.1666625907722405
  0.0000000000000000  0.5000000000000000  0.4997541735441118
  0.0000000000000000  0.5000000000000000  0.8335870414490358
  0.5000000000000000  0.5000000000000000  0.0104606257120352
  0.5000000000000000  0.5000000000000000  0.3228553035702006
  0.5000000000000000  0.5000000000000000  0.6666763708083820
  0.5000000000000000  0.0000000000000000  0.1666625907722405
  0.5000000000000000  0.0000000000000000  0.4997541735441118
  0.5000000000000000  0.0000000000000000  0.8335870414490358
  0.0000000000000000  0.0000000000000000  0.9968254117853448
  0.0000000000000000  0.0000000000000000  0.3365166246975306
  0.0000000000000000  0.0000000000000000  0.6666580518957090
 
  0.00000000E+00  0.00000000E+00  0.00000000E+00
  0.00000000E+00  0.00000000E+00  0.00000000E+00
  0.00000000E+00  0.00000000E+00  0.00000000E+00
  0.00000000E+00  0.00000000E+00  0.00000000E+00
  0.00000000E+00  0.00000000E+00  0.00000000E+00
  0.00000000E+00  0.00000000E+00  0.00000000E+00
  0.00000000E+00  0.00000000E+00  0.00000000E+00
  0.00000000E+00  0.00000000E+00  0.00000000E+00
  0.00000000E+00  0.00000000E+00  0.00000000E+00
  0.00000000E+00  0.00000000E+00  0.00000000E+00
  0.00000000E+00  0.00000000E+00  0.00000000E+00
  0.00000000E+00  0.00000000E+00  0.00000000E+00
