ALGO = Normal
EDIFF = 1e-06
EDIFFG = -0.01
ENCUT = 520
GGA = Pe
IBRION = -1
ISIF = 4
ISMEAR = -5
ISPIN = 2
KPAR = 4
LCHARG = True
LORBIT = 11
LREAL = False
LWAVE = False
MAGMOM = 1*-2.722 2*2.734 2*-2.759 1*2.887 1*-2.722 2*2.734 2*-0.081 1*0.249
NELM = 200
NSW = 0
PREC = Accurate
SIGMA = 0.2
