ALGO = All
EDIFF = 1e-06
EDIFFG = -0.01
ENCUT = 520
GGA = Pe
IBRION = 2
ISIF = 4
ISMEAR = 1
ISPIN = 2
KPAR = 4
LCHARG = True
LORBIT = 11
LREAL = False
LWAVE = False
MAGMOM = 1*-2.764 2*2.775 2*-2.798 1*2.928 1*-2.764 2*2.775 2*-0.078 1*0.251
NELM = 200
NSW = 100
PREC = Accurate
SIGMA = 0.2
