Fe8 Se8
1.0
   4.8940008652766744   -4.9692839126154222    1.1599592855429819
   4.6543874958025704    4.8444286826054048    1.0481216513814360
   1.0301975108984034   -0.0834207236692210    7.1988555877088301
Fe Se
8 8
direct
   0.9583482627726738    0.0001338392404193    0.9997238501088930 Fe
   0.0416517372273262    0.4998661607595878    0.0002761498911070 Fe
   0.4583482627726738    0.0001338392404193    0.9997238501088930 Fe
   0.5416517372273262    0.4998661607595878    0.0002761498911070 Fe
   0.2500000000000000    0.2500000000000000    0.0000000000000000 Fe
   0.2500000000000000    0.7500000000000000    0.0000000000000000 Fe
   0.7500000000000000    0.2500000000000000    0.0000000000000000 Fe
   0.7500000000000000    0.7500000000000000    0.0000000000000000 Fe
   0.2561187544610561    0.0616238415151145    0.7640912291438937 Se
   0.3745995261748476    0.5615040087761471    0.7644488669709233 Se
   0.7561187544610490    0.0616238415151145    0.7640912291438937 Se
   0.8745995261748476    0.5615040087761471    0.7644488669709233 Se
   0.2438812455389439    0.4383761584848855    0.2359087708561134 Se
   0.1254004738251524    0.9384959912238529    0.2355511330290838 Se
   0.7438812455389510    0.4383761584848855    0.2359087708561134 Se
   0.6254004738251524    0.9384959912238529    0.2355511330290838 Se
