ALGO = Fast
EDIFF = 0.0002
ENCUT = 550
IBRION = 2
ISIF = 4
ISMEAR = 0
ISPIN = 2
IVDW = 13
LASPH = True
LMAXMIX = 4
LORBIT = 11
LREAL = Auto
LWAVE = False
MAGMOM = 1*2.68 2*-2.68 1*2.68 1*-2.429 1*-2.16 1*2.429 1*2.16 1*0.008 1*0.01 1*-0.008 1*-0.01 1*0.008 1*0.01 1*-0.008 1*-0.01
NELM = 100
NSW = 99
PREC = Accurate
SIGMA = 0.05
