Fe8 Se8                                 
   1.00000000000000     
     4.9287817337879600   -5.0045998055050642    1.1682029276058925
     4.6874654710519534    4.8788572496736036    1.0555704815602736
     1.0375189571248304   -0.0840135811902814    7.2500166840225484
   Fe   Se
     8     8
Direct
  0.9583482627726745  0.0001338392404158 -0.0002761498911041
  0.0416517372273254  0.4998661607595843  0.0002761498911040
  0.4583482627726747  0.0001338392404158 -0.0002761498911041
  0.5416517372273255  0.4998661607595843  0.0002761498911040
  0.2500000000000000  0.2500000000000000  0.0000000000000000
  0.2500000000000000  0.7500000000000000  0.0000000000000000
  0.7500000000000000  0.2500000000000000  0.0000000000000000
  0.7500000000000000  0.7500000000000000  0.0000000000000000
  0.2561187544610548  0.0616238415151174  0.7640912291438920
  0.3745995261748489  0.5615040087761489  0.7644488669709244
  0.7561187544610478  0.0616238415151174  0.7640912291438920
  0.8745995261748490  0.5615040087761489  0.7644488669709244
  0.2438812455389453  0.4383761584848825  0.2359087708561149
  0.1254004738251511  0.9384959912238511  0.2355511330290828
  0.7438812455389522  0.4383761584848825  0.2359087708561149
  0.6254004738251510  0.9384959912238511  0.2355511330290828
 
  0.00000000E+00  0.00000000E+00  0.00000000E+00
  0.00000000E+00  0.00000000E+00  0.00000000E+00
  0.00000000E+00  0.00000000E+00  0.00000000E+00
  0.00000000E+00  0.00000000E+00  0.00000000E+00
  0.00000000E+00  0.00000000E+00  0.00000000E+00
  0.00000000E+00  0.00000000E+00  0.00000000E+00
  0.00000000E+00  0.00000000E+00  0.00000000E+00
  0.00000000E+00  0.00000000E+00  0.00000000E+00
  0.00000000E+00  0.00000000E+00  0.00000000E+00
  0.00000000E+00  0.00000000E+00  0.00000000E+00
  0.00000000E+00  0.00000000E+00  0.00000000E+00
  0.00000000E+00  0.00000000E+00  0.00000000E+00
  0.00000000E+00  0.00000000E+00  0.00000000E+00
  0.00000000E+00  0.00000000E+00  0.00000000E+00
  0.00000000E+00  0.00000000E+00  0.00000000E+00
  0.00000000E+00  0.00000000E+00  0.00000000E+00
