Fe8 Se8
1.0
   5.6552899234869605   -5.6725972543107819    0.9551957752625873
   4.8133980736244153    4.9976216711577122    1.1650955239887595
   1.3305417370968846    0.0417837499441288    6.2667696647042419
Fe Se
8 8
direct
   0.9730828179279101    0.9692390696733000    0.0116777365754714 Fe
   0.0269171820720899    0.5307609303267000    0.9883222634245286 Fe
   0.4730828179279101    0.9692390696733000    0.0116777365754714 Fe
   0.5269171820720899    0.5307609303267000    0.9883222634245286 Fe
   0.2500000000000000    0.2500000000000000    0.0000000000000000 Fe
   0.2500000000000000    0.7500000000000000    0.0000000000000000 Fe
   0.7500000000000000    0.2500000000000000    0.0000000000000000 Fe
   0.7500000000000000    0.7500000000000000    0.0000000000000000 Fe
   0.3292782277436928    0.0734195201559942    0.7225887289774491 Se
   0.3472715550060528    0.5814245336863237    0.7230846788315688 Se
   0.8292782277436856    0.0734195201559942    0.7225887289774491 Se
   0.8472715550060528    0.5814245336863237    0.7230846788315688 Se
   0.1707217722563072    0.4265804798440058    0.2774112710225580 Se
   0.1527284449939472    0.9185754663136763    0.2769153211684383 Se
   0.6707217722563144    0.4265804798440058    0.2774112710225580 Se
   0.6527284449939472    0.9185754663136763    0.2769153211684383 Se
