Fe3 Pt1                                 
   1.00000000000000     
     3.7330383291759386    0.0000000000000000    0.0000000000000000
     0.0000000000000000    3.7330383291759386    0.0000000000000000
     0.0000000000000000    0.0000000000000000   11.1991145397241141
  Fe              Pt            
     9     3
Direct
  0.0000000000000000  0.5000000000000000  0.1666666666666643
  0.0000000000000000  0.5000000000000000  0.5000000000000000
  0.0000000000000000  0.5000000000000000  0.8333333333333357
  0.5000000000000000  0.5000000000000000  0.0000000000000000
  0.5000000000000000  0.5000000000000000  0.3333333333333357
  0.5000000000000000  0.5000000000000000  0.6666666666666643
  0.5000000000000000  0.0000000000000000  0.1666666666666643
  0.5000000000000000  0.0000000000000000  0.5000000000000000
  0.5000000000000000  0.0000000000000000  0.8333333333333357
  0.0000000000000000  0.0000000000000000  0.0000000000000000
  0.0000000000000000  0.0000000000000000  0.3333333333333357
  0.0000000000000000  0.0000000000000000  0.6666666666666643
 
  0.00000000E+00  0.00000000E+00  0.00000000E+00
  0.00000000E+00  0.00000000E+00  0.00000000E+00
  0.00000000E+00  0.00000000E+00  0.00000000E+00
  0.00000000E+00  0.00000000E+00  0.00000000E+00
  0.00000000E+00  0.00000000E+00  0.00000000E+00
  0.00000000E+00  0.00000000E+00  0.00000000E+00
  0.00000000E+00  0.00000000E+00  0.00000000E+00
  0.00000000E+00  0.00000000E+00  0.00000000E+00
  0.00000000E+00  0.00000000E+00  0.00000000E+00
  0.00000000E+00  0.00000000E+00  0.00000000E+00
  0.00000000E+00  0.00000000E+00  0.00000000E+00
  0.00000000E+00  0.00000000E+00  0.00000000E+00
