Fe9 Pt3                                 
   1.00000000000000     
     3.7198352748827865    0.0000000000000000    0.0000000000000000
     0.0000000000000000    3.7198352748827865    0.0000000000000000
     0.0000000000000000    0.0000000000000000   11.3462470473808672
  Fe              Pt            
     9     3
Direct
  0.0000000000000000  0.5000000000000000  0.1666492105566775
  0.0000000000000000  0.5000000000000000  0.4995231023756830
  0.0000000000000000  0.5000000000000000  0.8338326985194655
  0.5000000000000000  0.5000000000000000  0.0070232532489456
  0.5000000000000000  0.5000000000000000  0.3261626518639105
  0.5000000000000000  0.5000000000000000  0.6668223808855274
  0.5000000000000000  0.0000000000000000  0.1666492105566775
  0.5000000000000000  0.0000000000000000  0.4995231023756830
  0.5000000000000000  0.0000000000000000  0.8338326985194655
  0.0000000000000000  0.0000000000000000  0.9974232930061007
  0.0000000000000000  0.0000000000000000  0.3358690847211179
  0.0000000000000000  0.0000000000000000  0.6666893133707248
 
  0.00000000E+00  0.00000000E+00  0.00000000E+00
  0.00000000E+00  0.00000000E+00  0.00000000E+00
  0.00000000E+00  0.00000000E+00  0.00000000E+00
  0.00000000E+00  0.00000000E+00  0.00000000E+00
  0.00000000E+00  0.00000000E+00  0.00000000E+00
  0.00000000E+00  0.00000000E+00  0.00000000E+00
  0.00000000E+00  0.00000000E+00  0.00000000E+00
  0.00000000E+00  0.00000000E+00  0.00000000E+00
  0.00000000E+00  0.00000000E+00  0.00000000E+00
  0.00000000E+00  0.00000000E+00  0.00000000E+00
  0.00000000E+00  0.00000000E+00  0.00000000E+00
  0.00000000E+00  0.00000000E+00  0.00000000E+00
