ALGO = All
EDIFF = 1e-06
EDIFFG = -0.01
ENCUT = 520
GGA = Pe
IBRION = 2
ISIF = 4
ISMEAR = 1
ISPIN = 2
KPAR = 4
LCHARG = True
LORBIT = 11
LREAL = False
LWAVE = False
MAGMOM = 1*-2.636 1*2.63 1*2.631 2*-2.676 1*2.817 1*-2.636 1*2.63 1*2.631 2*-0.083 1*0.24
NELM = 200
NSW = 100
PREC = Accurate
SIGMA = 0.2
