ALGO = All
EDIFF = 1e-06
EDIFFG = -0.01
ENCUT = 520
GGA = Pe
IBRION = 2
ISIF = 4
ISMEAR = 1
ISPIN = 2
KPAR = 4
LCHARG = True
LORBIT = 11
LREAL = False
LWAVE = False
MAGMOM = 1*-2.603 1*2.579 1*2.58 1*-2.632 1*-2.631 1*2.769 1*-2.603 1*2.579 1*2.58 1*-0.088 1*-0.087 1*0.239
NELM = 200
NSW = 100
PREC = Accurate
SIGMA = 0.2
