ALGO = Normal
EDIFF = 1e-06
EDIFFG = -0.01
ENCUT = 520
GGA = Pe
IBRION = -1
ISIF = 4
ISMEAR = -5
ISPIN = 2
KPAR = 4
LCHARG = True
LORBIT = 11
LREAL = False
LWAVE = False
MAGMOM = 1*-2.598 1*2.583 1*2.58 2*-2.632 1*2.771 1*-2.598 1*2.583 1*2.58 2*-0.087 1*0.239
NELM = 200
NSW = 0
PREC = Accurate
SIGMA = 0.2
