Al4                                     
   1.00000000000000     
     4.1212852998085561    0.0000000000000000    0.0000000000000002
     0.0000000000000006    4.1212852998085561    0.0000000000000002
     0.0000000000000000    0.0000000000000000    4.1212852998085561
  Al            
     4
Direct
  0.0000000000000000  0.0000000000000000  0.0000000000000000
  0.0000000000000000  0.5000000000000000  0.5000000000000000
  0.5000000000000000  0.0000000000000000  0.5000000000000000
  0.5000000000000000  0.5000000000000000  0.0000000000000000
 
  0.00000000E+00  0.00000000E+00  0.00000000E+00
  0.00000000E+00  0.00000000E+00  0.00000000E+00
  0.00000000E+00  0.00000000E+00  0.00000000E+00
  0.00000000E+00  0.00000000E+00  0.00000000E+00
