Fe8 Se8                                 
   1.00000000000000     
     4.9427050370470429   -5.0101938383362494    1.1640961891859483
     4.6828442217218491    4.8622914076634700    1.0328104267136113
     1.0846092473947839   -0.1015000101187006    6.9646873000138578
   Fe   Se
     8     8
Direct
  0.9578615932914437  0.0001071826640697  0.9998224212645291
  0.0421384067085563  0.4998928173359373  0.0001775787354709
  0.4578615932914437  0.0001071826640697  0.9998224212645291
  0.5421384067085563  0.4998928173359373  0.0001775787354709
  0.2500000000000000  0.2500000000000000 -0.0000000000000000
  0.2500000000000000  0.7500000000000000 -0.0000000000000000
  0.7500000000000000  0.2500000000000000 -0.0000000000000000
  0.7500000000000000  0.7500000000000000 -0.0000000000000000
  0.2574857302163767  0.0626123197107918  0.7541383411540097
  0.3777805382796886  0.5623489679760200  0.7546427658744224
  0.7574857302163696  0.0626123197107918  0.7541383411540097
  0.8777805382796957  0.5623489679760200  0.7546427658744224
  0.2425142697836234  0.4373876802892082  0.2458616588459974
  0.1222194617203113  0.9376510320239800  0.2453572341255848
  0.7425142697836304  0.4373876802892082  0.2458616588459974
  0.6222194617203043  0.9376510320239800  0.2453572341255848
 
  0.00000000E+00  0.00000000E+00  0.00000000E+00
  0.00000000E+00  0.00000000E+00  0.00000000E+00
  0.00000000E+00  0.00000000E+00  0.00000000E+00
  0.00000000E+00  0.00000000E+00  0.00000000E+00
  0.00000000E+00  0.00000000E+00  0.00000000E+00
  0.00000000E+00  0.00000000E+00  0.00000000E+00
  0.00000000E+00  0.00000000E+00  0.00000000E+00
  0.00000000E+00  0.00000000E+00  0.00000000E+00
  0.00000000E+00  0.00000000E+00  0.00000000E+00
  0.00000000E+00  0.00000000E+00  0.00000000E+00
  0.00000000E+00  0.00000000E+00  0.00000000E+00
  0.00000000E+00  0.00000000E+00  0.00000000E+00
  0.00000000E+00  0.00000000E+00  0.00000000E+00
  0.00000000E+00  0.00000000E+00  0.00000000E+00
  0.00000000E+00  0.00000000E+00  0.00000000E+00
  0.00000000E+00  0.00000000E+00  0.00000000E+00
