Fe8 Se8                                 
   1.00000000000000     
     4.9427050370470429   -5.0101938383362494    1.1640961891859483
     4.6828442217218491    4.8622914076634700    1.0328104267136113
     1.0846092473947839   -0.1015000101187006    6.9646873000138578
   Fe   Se
     8     8
Direct
  0.9578615932914403  0.0001071826640668  0.9998224212645326
  0.0421384067085597  0.4998928173359403  0.0001775787354674
  0.4578615932914403  0.0001071826640668  0.9998224212645326
  0.5421384067085597  0.4998928173359403  0.0001775787354674
  0.2500000000000000  0.2500000000000000  0.0000000000000000
  0.2500000000000000  0.7500000000000000  0.0000000000000000
  0.7500000000000000  0.2500000000000000  0.0000000000000000
  0.7500000000000000  0.7500000000000000  0.0000000000000000
  0.2574857302163736  0.0626123197107944  0.7541383411540110
  0.3777805382796871  0.5623489679760212  0.7546427658744221
  0.7574857302163664  0.0626123197107944  0.7541383411540110
  0.8777805382796942  0.5623489679760212  0.7546427658744221
  0.2425142697836264  0.4373876802892056  0.2458616588459961
  0.1222194617203129  0.9376510320239788  0.2453572341255850
  0.7425142697836336  0.4373876802892056  0.2458616588459961
  0.6222194617203058  0.9376510320239788  0.2453572341255850
 
  0.00000000E+00  0.00000000E+00  0.00000000E+00
  0.00000000E+00  0.00000000E+00  0.00000000E+00
  0.00000000E+00  0.00000000E+00  0.00000000E+00
  0.00000000E+00  0.00000000E+00  0.00000000E+00
  0.00000000E+00  0.00000000E+00  0.00000000E+00
  0.00000000E+00  0.00000000E+00  0.00000000E+00
  0.00000000E+00  0.00000000E+00  0.00000000E+00
  0.00000000E+00  0.00000000E+00  0.00000000E+00
  0.00000000E+00  0.00000000E+00  0.00000000E+00
  0.00000000E+00  0.00000000E+00  0.00000000E+00
  0.00000000E+00  0.00000000E+00  0.00000000E+00
  0.00000000E+00  0.00000000E+00  0.00000000E+00
  0.00000000E+00  0.00000000E+00  0.00000000E+00
  0.00000000E+00  0.00000000E+00  0.00000000E+00
  0.00000000E+00  0.00000000E+00  0.00000000E+00
  0.00000000E+00  0.00000000E+00  0.00000000E+00
