Fe8 Se8                                 
   1.00000000000000     
     4.8398756255084114   -5.7878159118771038    0.0000000000000000
     4.8398756255084114    5.7878159118771038   -0.0000000000000000
     0.0000000000000000    0.0000000000000000    5.6939254492393765
   Fe   Se
     8     8
Direct
  0.0000000000000000  0.0000000000000000 -0.0000000000000000
  0.0000000000000000  0.5000000000000000 -0.0000000000000000
  0.5000000000000000  0.0000000000000000 -0.0000000000000000
  0.5000000000000000  0.5000000000000000 -0.0000000000000000
  0.2500000000000000  0.2500000000000000 -0.0000000000000000
  0.2500000000000000  0.7500000000000000 -0.0000000000000000
  0.7500000000000000  0.2500000000000000 -0.0000000000000000
  0.7500000000000000  0.7500000000000000 -0.0000000000000000
  0.3750000000000000  0.1250000000000000  0.6864607718431188
  0.3750000000000000  0.6250000000000000  0.6864607718431188
  0.8750000000000000  0.1250000000000000  0.6864607718431188
  0.8750000000000000  0.6250000000000000  0.6864607718431188
  0.1250000000000000  0.3750000000000000  0.3135392281568811
  0.1250000000000000  0.8750000000000000  0.3135392281568811
  0.6250000000000000  0.3750000000000000  0.3135392281568811
  0.6250000000000000  0.8750000000000000  0.3135392281568811
 
  0.00000000E+00  0.00000000E+00  0.00000000E+00
  0.00000000E+00  0.00000000E+00  0.00000000E+00
  0.00000000E+00  0.00000000E+00  0.00000000E+00
  0.00000000E+00  0.00000000E+00  0.00000000E+00
  0.00000000E+00  0.00000000E+00  0.00000000E+00
  0.00000000E+00  0.00000000E+00  0.00000000E+00
  0.00000000E+00  0.00000000E+00  0.00000000E+00
  0.00000000E+00  0.00000000E+00  0.00000000E+00
  0.00000000E+00  0.00000000E+00  0.00000000E+00
  0.00000000E+00  0.00000000E+00  0.00000000E+00
  0.00000000E+00  0.00000000E+00  0.00000000E+00
  0.00000000E+00  0.00000000E+00  0.00000000E+00
  0.00000000E+00  0.00000000E+00  0.00000000E+00
  0.00000000E+00  0.00000000E+00  0.00000000E+00
  0.00000000E+00  0.00000000E+00  0.00000000E+00
  0.00000000E+00  0.00000000E+00  0.00000000E+00
