Fe8 Se8                                 
   1.00000000000000     
     4.8172332958274673   -5.7559686329218467    0.0000000000000000
     4.8172332958274673    5.7559686329218467    0.0000000000000000
     0.0000000000000000   -0.0000000000000000    5.7523405515464443
   Fe   Se
     8     8
Direct
  0.0000000000000000 -0.0000000000000000 -0.0000000000000000
  0.0000000000000000  0.5000000000000000 -0.0000000000000000
  0.5000000000000000 -0.0000000000000000 -0.0000000000000000
  0.5000000000000000  0.5000000000000000 -0.0000000000000000
  0.2500000000000000  0.2500000000000000 -0.0000000000000000
  0.2500000000000000  0.7500000000000000 -0.0000000000000000
  0.7500000000000000  0.2500000000000000 -0.0000000000000000
  0.7500000000000000  0.7500000000000000 -0.0000000000000000
  0.3750000000000000  0.1250000000000000  0.6896027813043750
  0.3750000000000000  0.6250000000000000  0.6896027813043750
  0.8750000000000000  0.1250000000000000  0.6896027813043750
  0.8750000000000000  0.6250000000000000  0.6896027813043750
  0.1250000000000000  0.3750000000000000  0.3103972186956250
  0.1250000000000000  0.8750000000000000  0.3103972186956250
  0.6250000000000000  0.3750000000000000  0.3103972186956250
  0.6250000000000000  0.8750000000000000  0.3103972186956250
 
  0.00000000E+00  0.00000000E+00  0.00000000E+00
  0.00000000E+00  0.00000000E+00  0.00000000E+00
  0.00000000E+00  0.00000000E+00  0.00000000E+00
  0.00000000E+00  0.00000000E+00  0.00000000E+00
  0.00000000E+00  0.00000000E+00  0.00000000E+00
  0.00000000E+00  0.00000000E+00  0.00000000E+00
  0.00000000E+00  0.00000000E+00  0.00000000E+00
  0.00000000E+00  0.00000000E+00  0.00000000E+00
  0.00000000E+00  0.00000000E+00  0.00000000E+00
  0.00000000E+00  0.00000000E+00  0.00000000E+00
  0.00000000E+00  0.00000000E+00  0.00000000E+00
  0.00000000E+00  0.00000000E+00  0.00000000E+00
  0.00000000E+00  0.00000000E+00  0.00000000E+00
  0.00000000E+00  0.00000000E+00  0.00000000E+00
  0.00000000E+00  0.00000000E+00  0.00000000E+00
  0.00000000E+00  0.00000000E+00  0.00000000E+00
