Fe8 Se8                                 
   1.00000000000000     
     4.8105932609415447   -5.6842888774021292    0.0000000000000000
     4.8105932609415447    5.6842888774021292   -0.0000000000000000
     0.0000000000000000   -0.0000000000000000    5.5769283427291860
   Fe   Se
     8     8
Direct
  0.0000000000000000  0.0000000000000000  0.0000000000000000
  0.0000000000000000  0.5000000000000000  0.0000000000000000
  0.5000000000000000  0.0000000000000000  0.0000000000000000
  0.5000000000000000  0.5000000000000000  0.0000000000000000
  0.2500000000000000  0.2500000000000000  0.0000000000000000
  0.2500000000000000  0.7500000000000000  0.0000000000000000
  0.7500000000000000  0.2500000000000000  0.0000000000000000
  0.7500000000000000  0.7500000000000000  0.0000000000000000
  0.3750000000000000  0.1250000000000000  0.6770887262372073
  0.3750000000000000  0.6250000000000000  0.6770887262372073
  0.8750000000000000  0.1250000000000000  0.6770887262372073
  0.8750000000000000  0.6250000000000000  0.6770887262372073
  0.1250000000000000  0.3750000000000000  0.3229112737627927
  0.1250000000000000  0.8750000000000000  0.3229112737627927
  0.6250000000000000  0.3750000000000000  0.3229112737627927
  0.6250000000000000  0.8750000000000000  0.3229112737627927
 
  0.00000000E+00  0.00000000E+00  0.00000000E+00
  0.00000000E+00  0.00000000E+00  0.00000000E+00
  0.00000000E+00  0.00000000E+00  0.00000000E+00
  0.00000000E+00  0.00000000E+00  0.00000000E+00
  0.00000000E+00  0.00000000E+00  0.00000000E+00
  0.00000000E+00  0.00000000E+00  0.00000000E+00
  0.00000000E+00  0.00000000E+00  0.00000000E+00
  0.00000000E+00  0.00000000E+00  0.00000000E+00
  0.00000000E+00  0.00000000E+00  0.00000000E+00
  0.00000000E+00  0.00000000E+00  0.00000000E+00
  0.00000000E+00  0.00000000E+00  0.00000000E+00
  0.00000000E+00  0.00000000E+00  0.00000000E+00
  0.00000000E+00  0.00000000E+00  0.00000000E+00
  0.00000000E+00  0.00000000E+00  0.00000000E+00
  0.00000000E+00  0.00000000E+00  0.00000000E+00
  0.00000000E+00  0.00000000E+00  0.00000000E+00
