Fe8 Se8
1.0
   4.7931707069120284   -5.6890861727775555    0.0000000000000000
   4.7931707069120284    5.6890861727775555    0.0000000000000000
   0.0000000000000000    0.0000000000000000    5.5924799415600743
Fe Se
8 8
direct
   0.0000000000000000    0.0000000000000000    0.0000000000000000 Fe
   0.0000000000000000    0.5000000000000000    0.0000000000000000 Fe
   0.5000000000000000    0.0000000000000000    0.0000000000000000 Fe
   0.5000000000000000    0.5000000000000000    0.0000000000000000 Fe
   0.2500000000000000    0.2500000000000000    0.0000000000000000 Fe
   0.2500000000000000    0.7500000000000000    0.0000000000000000 Fe
   0.7500000000000000    0.2500000000000000    0.0000000000000000 Fe
   0.7500000000000000    0.7500000000000000    0.0000000000000000 Fe
   0.3750000000000000    0.1250000000000000    0.6819753909456878 Se
   0.3750000000000000    0.6250000000000000    0.6819753909456878 Se
   0.8750000000000000    0.1250000000000000    0.6819753909456878 Se
   0.8750000000000000    0.6250000000000000    0.6819753909456878 Se
   0.1250000000000000    0.3750000000000000    0.3180246090543122 Se
   0.1250000000000000    0.8750000000000000    0.3180246090543122 Se
   0.6250000000000000    0.3750000000000000    0.3180246090543122 Se
   0.6250000000000000    0.8750000000000000    0.3180246090543122 Se
