Fe9 Pt3                                 
   1.00000000000000     
     3.5838611137670364    0.0000000000000000    0.0000000000000000
     0.0000000000000000    3.5838506253111673    0.0000000000000000
     0.0000000000000000    0.0000000000000000   10.8221544878463423
  Fe              Pt            
     9     3
Direct
  0.0000000000000000  0.5000000000000000  0.1666678038555673
  0.0000000000000000  0.5000000000000000  0.4984894112094409
  0.0000000000000000  0.5000000000000000  0.8348430974934260
  0.5000000000000000  0.5000000000000000  0.9981145321868823
  0.5000000000000000  0.5000000000000000  0.3352207624671664
  0.5000000000000000  0.5000000000000000  0.6666717136478155
  0.5000000000000000  0.0000000000000000  0.1666673319009888
  0.5000000000000000  0.0000000000000000  0.4984916582676249
  0.5000000000000000  0.0000000000000000  0.8348410036209870
  0.0000000000000000  0.0000000000000000  0.0034451545549032
  0.0000000000000000  0.0000000000000000  0.3298839471473514
  0.0000000000000000  0.0000000000000000  0.6666635836478463
 
  0.00000000E+00  0.00000000E+00  0.00000000E+00
  0.00000000E+00  0.00000000E+00  0.00000000E+00
  0.00000000E+00  0.00000000E+00  0.00000000E+00
  0.00000000E+00  0.00000000E+00  0.00000000E+00
  0.00000000E+00  0.00000000E+00  0.00000000E+00
  0.00000000E+00  0.00000000E+00  0.00000000E+00
  0.00000000E+00  0.00000000E+00  0.00000000E+00
  0.00000000E+00  0.00000000E+00  0.00000000E+00
  0.00000000E+00  0.00000000E+00  0.00000000E+00
  0.00000000E+00  0.00000000E+00  0.00000000E+00
  0.00000000E+00  0.00000000E+00  0.00000000E+00
  0.00000000E+00  0.00000000E+00  0.00000000E+00
