Fe8 Se8                                 
   1.00000000000000     
     4.7467902105254023   -5.4901042635401209    0.0000000000000000
     4.7467902105254023    5.4901042635401209    0.0000000000000000
     0.0000000000000000    0.0000000000000000    5.4488859026573158
   Fe   Se
     8     8
Direct
  0.0000000000000000  0.0000000000000000  0.0000000000000000
  0.0000000000000000  0.5000000000000000  0.0000000000000000
  0.5000000000000000  0.0000000000000000  0.0000000000000000
  0.5000000000000000  0.5000000000000000  0.0000000000000000
  0.2500000000000000  0.2500000000000000  0.0000000000000000
  0.2500000000000000  0.7500000000000000  0.0000000000000000
  0.7500000000000000  0.2500000000000000  0.0000000000000000
  0.7500000000000000  0.7500000000000000  0.0000000000000000
  0.3750000000000000  0.1250000000000000  0.6641836272632062
  0.3750000000000000  0.6250000000000000  0.6641836272632062
  0.8750000000000000  0.1250000000000000  0.6641836272632062
  0.8750000000000000  0.6250000000000000  0.6641836272632062
  0.1250000000000000  0.3750000000000000  0.3358163727367938
  0.1250000000000000  0.8750000000000000  0.3358163727367938
  0.6250000000000000  0.3750000000000000  0.3358163727367938
  0.6250000000000000  0.8750000000000000  0.3358163727367938
 
  0.00000000E+00  0.00000000E+00  0.00000000E+00
  0.00000000E+00  0.00000000E+00  0.00000000E+00
  0.00000000E+00  0.00000000E+00  0.00000000E+00
  0.00000000E+00  0.00000000E+00  0.00000000E+00
  0.00000000E+00  0.00000000E+00  0.00000000E+00
  0.00000000E+00  0.00000000E+00  0.00000000E+00
  0.00000000E+00  0.00000000E+00  0.00000000E+00
  0.00000000E+00  0.00000000E+00  0.00000000E+00
  0.00000000E+00  0.00000000E+00  0.00000000E+00
  0.00000000E+00  0.00000000E+00  0.00000000E+00
  0.00000000E+00  0.00000000E+00  0.00000000E+00
  0.00000000E+00  0.00000000E+00  0.00000000E+00
  0.00000000E+00  0.00000000E+00  0.00000000E+00
  0.00000000E+00  0.00000000E+00  0.00000000E+00
  0.00000000E+00  0.00000000E+00  0.00000000E+00
  0.00000000E+00  0.00000000E+00  0.00000000E+00
