Fe8 Se8
1.0
   4.7264222763804700   -5.5142795217259275    0.0000000000000000
   4.7264222763804700    5.5142795217259275    0.0000000000000000
   0.0000000000000000    0.0000000000000000    5.4483756951408751
Fe Se
8 8
direct
   0.0000000000000000    0.0000000000000000    0.0000000000000000 Fe
   0.0000000000000000    0.5000000000000000    0.0000000000000000 Fe
   0.5000000000000000    0.0000000000000000    0.0000000000000000 Fe
   0.5000000000000000    0.5000000000000000    0.0000000000000000 Fe
   0.2500000000000000    0.2500000000000000    0.0000000000000000 Fe
   0.2500000000000000    0.7500000000000000    0.0000000000000000 Fe
   0.7500000000000000    0.2500000000000000    0.0000000000000000 Fe
   0.7500000000000000    0.7500000000000000    0.0000000000000000 Fe
   0.3750000000000000    0.1250000000000000    0.6686121323853698 Se
   0.3750000000000000    0.6250000000000000    0.6686121323853698 Se
   0.8750000000000000    0.1250000000000000    0.6686121323853698 Se
   0.8750000000000000    0.6250000000000000    0.6686121323853698 Se
   0.1250000000000000    0.3750000000000000    0.3313878676146302 Se
   0.1250000000000000    0.8750000000000000    0.3313878676146302 Se
   0.6250000000000000    0.3750000000000000    0.3313878676146302 Se
   0.6250000000000000    0.8750000000000000    0.3313878676146302 Se
