Fe8 Se8                                 
   1.00000000000000     
     4.9078229113725262   -4.9211577985015742    1.2125065763696132
     4.8177811849148657    4.9488732895253733    1.1332852746697271
     1.1538258810832049   -0.0439018592910807    7.2164716339835149
   Fe   Se
     8     8
Direct
 -0.0099403478651448 -0.0029071268929986  0.0006358997614203
  0.0099403478651448  0.5029071268929985 -0.0006358997614203
  0.4900596521348551 -0.0029071268929986  0.0006358997614203
  0.5099403478651449  0.5029071268929985 -0.0006358997614203
  0.2500000000000000  0.2500000000000000 -0.0000000000000000
  0.2500000000000000  0.7500000000000000 -0.0000000000000000
  0.7500000000000000  0.2500000000000000 -0.0000000000000000
  0.7500000000000000  0.7500000000000000 -0.0000000000000000
  0.3073922629186581  0.0658506972083580  0.7606144837875438
  0.3320829161240135  0.5638640817842346  0.7602707986243894
  0.8073922629186513  0.0658506972083580  0.7606144837875438
  0.8320829161240134  0.5638640817842346  0.7602707986243894
  0.1926077370813418  0.4341493027916420  0.2393855162124632
  0.1679170838759865  0.9361359182157654  0.2397292013756176
  0.6926077370813487  0.4341493027916420  0.2393855162124632
  0.6679170838759866  0.9361359182157654  0.2397292013756176
 
  0.00000000E+00  0.00000000E+00  0.00000000E+00
  0.00000000E+00  0.00000000E+00  0.00000000E+00
  0.00000000E+00  0.00000000E+00  0.00000000E+00
  0.00000000E+00  0.00000000E+00  0.00000000E+00
  0.00000000E+00  0.00000000E+00  0.00000000E+00
  0.00000000E+00  0.00000000E+00  0.00000000E+00
  0.00000000E+00  0.00000000E+00  0.00000000E+00
  0.00000000E+00  0.00000000E+00  0.00000000E+00
  0.00000000E+00  0.00000000E+00  0.00000000E+00
  0.00000000E+00  0.00000000E+00  0.00000000E+00
  0.00000000E+00  0.00000000E+00  0.00000000E+00
  0.00000000E+00  0.00000000E+00  0.00000000E+00
  0.00000000E+00  0.00000000E+00  0.00000000E+00
  0.00000000E+00  0.00000000E+00  0.00000000E+00
  0.00000000E+00  0.00000000E+00  0.00000000E+00
  0.00000000E+00  0.00000000E+00  0.00000000E+00
