Fe8 Se8                                 
   1.00000000000000     
     4.9287817337879600   -5.0045998055050642    1.1682029276058925
     4.6874654710519534    4.8788572496736036    1.0555704815602736
     1.0375189571248304   -0.0840135811902814    7.2500166840225484
   Fe   Se
     8     8
Direct
  0.9583482627726738  0.0001338392404193  0.9997238501088930
  0.0416517372273262  0.4998661607595878  0.0002761498911070
  0.4583482627726738  0.0001338392404193  0.9997238501088930
  0.5416517372273262  0.4998661607595878  0.0002761498911070
  0.2500000000000000  0.2500000000000000  0.0000000000000000
  0.2500000000000000  0.7500000000000000  0.0000000000000000
  0.7500000000000000  0.2500000000000000  0.0000000000000000
  0.7500000000000000  0.7500000000000000  0.0000000000000000
  0.2561187544610561  0.0616238415151145  0.7640912291438937
  0.3745995261748476  0.5615040087761471  0.7644488669709233
  0.7561187544610490  0.0616238415151145  0.7640912291438937
  0.8745995261748476  0.5615040087761471  0.7644488669709233
  0.2438812455389439  0.4383761584848855  0.2359087708561134
  0.1254004738251524  0.9384959912238529  0.2355511330290838
  0.7438812455389510  0.4383761584848855  0.2359087708561134
  0.6254004738251524  0.9384959912238529  0.2355511330290838
 
  0.00000000E+00  0.00000000E+00  0.00000000E+00
  0.00000000E+00  0.00000000E+00  0.00000000E+00
  0.00000000E+00  0.00000000E+00  0.00000000E+00
  0.00000000E+00  0.00000000E+00  0.00000000E+00
  0.00000000E+00  0.00000000E+00  0.00000000E+00
  0.00000000E+00  0.00000000E+00  0.00000000E+00
  0.00000000E+00  0.00000000E+00  0.00000000E+00
  0.00000000E+00  0.00000000E+00  0.00000000E+00
  0.00000000E+00  0.00000000E+00  0.00000000E+00
  0.00000000E+00  0.00000000E+00  0.00000000E+00
  0.00000000E+00  0.00000000E+00  0.00000000E+00
  0.00000000E+00  0.00000000E+00  0.00000000E+00
  0.00000000E+00  0.00000000E+00  0.00000000E+00
  0.00000000E+00  0.00000000E+00  0.00000000E+00
  0.00000000E+00  0.00000000E+00  0.00000000E+00
  0.00000000E+00  0.00000000E+00  0.00000000E+00
