Fe8 Se8
1.0
   4.9175573863696016   -4.9799401436383839    1.1300510456337660
   4.6625430945985791    4.8237463007453458    0.9483028131938689
   1.0807617260204154   -0.1407468084608684    6.5845524758645197
Fe Se
8 8
direct
   0.9578494041269536    0.0002137125893356    0.9996999482565698 Fe
   0.0421505958730464    0.4997862874106715    0.0003000517434302 Fe
   0.4578494041269536    0.0002137125893356    0.9996999482565698 Fe
   0.5421505958730464    0.4997862874106715    0.0003000517434302 Fe
   0.2500000000000000    0.2500000000000000    0.0000000000000000 Fe
   0.2500000000000000    0.7500000000000000    0.0000000000000000 Fe
   0.7500000000000000    0.2500000000000000    0.0000000000000000 Fe
   0.7500000000000000    0.7500000000000000    0.0000000000000000 Fe
   0.2590281874368614    0.0601676235488213    0.7428795000731157 Se
   0.3791730281999151    0.5598647944491120    0.7434856525683244 Se
   0.7590281874368543    0.0601676235488213    0.7428795000731157 Se
   0.8791730281999222    0.5598647944491120    0.7434856525683244 Se
   0.2409718125631386    0.4398323764511787    0.2571204999268915 Se
   0.1208269718000849    0.9401352055508880    0.2565143474316827 Se
   0.7409718125631457    0.4398323764511787    0.2571204999268915 Se
   0.6208269718000778    0.9401352055508880    0.2565143474316827 Se
