pymatgen with grid density = 4001 / number of atoms
0
Gamma
10 10 10
