Fe8 Se8                                 
   1.00000000000000     
     4.7649396393753305   -5.5592174247683310    0.0000000000000000
     4.7649396393753305    5.5592174247683310    0.0000000000000000
     0.0000000000000000    0.0000000000000000    5.4927765235287325
   Fe   Se
     8     8
Direct
 -0.0000000000000000 -0.0000000000000000 -0.0000000000000000
 -0.0000000000000000  0.5000000000000000 -0.0000000000000000
  0.5000000000000000 -0.0000000000000000 -0.0000000000000000
  0.5000000000000000  0.5000000000000000 -0.0000000000000000
  0.2500000000000000  0.2500000000000000 -0.0000000000000000
  0.2500000000000000  0.7500000000000000 -0.0000000000000000
  0.7500000000000000  0.2500000000000000 -0.0000000000000000
  0.7500000000000000  0.7500000000000000 -0.0000000000000000
  0.3750000000000000  0.1250000000000000  0.6686121323853729
  0.3750000000000000  0.6250000000000000  0.6686121323853729
  0.8750000000000000  0.1250000000000000  0.6686121323853729
  0.8750000000000000  0.6250000000000000  0.6686121323853729
  0.1250000000000000  0.3750000000000000  0.3313878676146272
  0.1250000000000000  0.8750000000000000  0.3313878676146272
  0.6250000000000000  0.3750000000000000  0.3313878676146272
  0.6250000000000000  0.8750000000000000  0.3313878676146272
 
  0.00000000E+00  0.00000000E+00  0.00000000E+00
  0.00000000E+00  0.00000000E+00  0.00000000E+00
  0.00000000E+00  0.00000000E+00  0.00000000E+00
  0.00000000E+00  0.00000000E+00  0.00000000E+00
  0.00000000E+00  0.00000000E+00  0.00000000E+00
  0.00000000E+00  0.00000000E+00  0.00000000E+00
  0.00000000E+00  0.00000000E+00  0.00000000E+00
  0.00000000E+00  0.00000000E+00  0.00000000E+00
  0.00000000E+00  0.00000000E+00  0.00000000E+00
  0.00000000E+00  0.00000000E+00  0.00000000E+00
  0.00000000E+00  0.00000000E+00  0.00000000E+00
  0.00000000E+00  0.00000000E+00  0.00000000E+00
  0.00000000E+00  0.00000000E+00  0.00000000E+00
  0.00000000E+00  0.00000000E+00  0.00000000E+00
  0.00000000E+00  0.00000000E+00  0.00000000E+00
  0.00000000E+00  0.00000000E+00  0.00000000E+00
