Fe8 Se8                                 
   1.00000000000000     
     4.9427020694038299   -5.0092323276830868    1.1410327742232169
     4.6996348165833606    4.8672636618201457    0.9665944307819040
     1.0939773032423734   -0.1340420879136108    6.6482692851010103
   Fe   Se
     8     8
Direct
  0.9574334837989659  0.0003164593817956  0.9996324579916214
  0.0425665162010341  0.4996835406182115  0.0003675420083787
  0.4574334837989660  0.0003164593817956  0.9996324579916214
  0.5425665162010341  0.4996835406182115  0.0003675420083787
  0.2500000000000000  0.2500000000000000 -0.0000000000000000
  0.2500000000000000  0.7500000000000000 -0.0000000000000000
  0.7500000000000000  0.2500000000000000 -0.0000000000000000
  0.7500000000000000  0.7500000000000000 -0.0000000000000000
  0.2590831456580073  0.0603455682341119  0.7435054924500748
  0.3790671200776987  0.5599358938929558  0.7440350620097040
  0.7590831456580004  0.0603455682341119  0.7435054924500748
  0.8790671200777057  0.5599358938929558  0.7440350620097040
  0.2409168543419926  0.4396544317658882  0.2564945075499322
  0.1209328799223013  0.9400641061070442  0.2559649379903031
  0.7409168543419996  0.4396544317658882  0.2564945075499322
  0.6209328799222943  0.9400641061070442  0.2559649379903031
 
  0.00000000E+00  0.00000000E+00  0.00000000E+00
  0.00000000E+00  0.00000000E+00  0.00000000E+00
  0.00000000E+00  0.00000000E+00  0.00000000E+00
  0.00000000E+00  0.00000000E+00  0.00000000E+00
  0.00000000E+00  0.00000000E+00  0.00000000E+00
  0.00000000E+00  0.00000000E+00  0.00000000E+00
  0.00000000E+00  0.00000000E+00  0.00000000E+00
  0.00000000E+00  0.00000000E+00  0.00000000E+00
  0.00000000E+00  0.00000000E+00  0.00000000E+00
  0.00000000E+00  0.00000000E+00  0.00000000E+00
  0.00000000E+00  0.00000000E+00  0.00000000E+00
  0.00000000E+00  0.00000000E+00  0.00000000E+00
  0.00000000E+00  0.00000000E+00  0.00000000E+00
  0.00000000E+00  0.00000000E+00  0.00000000E+00
  0.00000000E+00  0.00000000E+00  0.00000000E+00
  0.00000000E+00  0.00000000E+00  0.00000000E+00
