Fe8 Se8                                 
   1.00000000000000     
     4.9557641362219771   -5.0186315736306755    1.1388309284553917
     4.6987685219184545    4.8612241894172179    0.9556706109685178
     1.0891586576008252   -0.1418403347140220    6.6357108721106943
   Fe   Se
     8     8
Direct
  0.9578494041269536  0.0002137125893356  0.9996999482565698
  0.0421505958730464  0.4997862874106715  0.0003000517434302
  0.4578494041269536  0.0002137125893356  0.9996999482565698
  0.5421505958730464  0.4997862874106715  0.0003000517434302
  0.2500000000000000  0.2500000000000000  0.0000000000000000
  0.2500000000000000  0.7500000000000000  0.0000000000000000
  0.7500000000000000  0.2500000000000000  0.0000000000000000
  0.7500000000000000  0.7500000000000000  0.0000000000000000
  0.2590281874368614  0.0601676235488213  0.7428795000731157
  0.3791730281999151  0.5598647944491120  0.7434856525683244
  0.7590281874368543  0.0601676235488213  0.7428795000731157
  0.8791730281999222  0.5598647944491120  0.7434856525683244
  0.2409718125631386  0.4398323764511787  0.2571204999268915
  0.1208269718000849  0.9401352055508880  0.2565143474316827
  0.7409718125631457  0.4398323764511787  0.2571204999268915
  0.6208269718000778  0.9401352055508880  0.2565143474316827
 
  0.00000000E+00  0.00000000E+00  0.00000000E+00
  0.00000000E+00  0.00000000E+00  0.00000000E+00
  0.00000000E+00  0.00000000E+00  0.00000000E+00
  0.00000000E+00  0.00000000E+00  0.00000000E+00
  0.00000000E+00  0.00000000E+00  0.00000000E+00
  0.00000000E+00  0.00000000E+00  0.00000000E+00
  0.00000000E+00  0.00000000E+00  0.00000000E+00
  0.00000000E+00  0.00000000E+00  0.00000000E+00
  0.00000000E+00  0.00000000E+00  0.00000000E+00
  0.00000000E+00  0.00000000E+00  0.00000000E+00
  0.00000000E+00  0.00000000E+00  0.00000000E+00
  0.00000000E+00  0.00000000E+00  0.00000000E+00
  0.00000000E+00  0.00000000E+00  0.00000000E+00
  0.00000000E+00  0.00000000E+00  0.00000000E+00
  0.00000000E+00  0.00000000E+00  0.00000000E+00
  0.00000000E+00  0.00000000E+00  0.00000000E+00
