Fe8 Se8
1.0
   4.9148963680979501   -4.9793287063060525    1.1395160769277040
   4.6599812201788566    4.8263883131830321    0.9706631598939858
   1.0689359496126098   -0.1296862703922725    6.7366387285205205
Fe Se
8 8
direct
   0.9574469636879144    0.0002484486794287    0.9996539860602027 Fe
   0.0425530363120856    0.4997515513205784    0.0003460139397973 Fe
   0.4574469636879144    0.0002484486794287    0.9996539860602027 Fe
   0.5425530363120856    0.4997515513205784    0.0003460139397973 Fe
   0.2500000000000000    0.2500000000000000    0.0000000000000000 Fe
   0.2500000000000000    0.7500000000000000    0.0000000000000000 Fe
   0.7500000000000000    0.2500000000000000    0.0000000000000000 Fe
   0.7500000000000000    0.7500000000000000    0.0000000000000000 Fe
   0.2579560162876930    0.0601558578454160    0.7485387597026687 Se
   0.3782457253217189    0.5599008039974933    0.7491581314829148 Se
   0.7579560162876859    0.0601558578454160    0.7485387597026687 Se
   0.8782457253217260    0.5599008039974933    0.7491581314829148 Se
   0.2420439837123070    0.4398441421545840    0.2514612402973384 Se
   0.1217542746782811    0.9400991960025067    0.2508418685170923 Se
   0.7420439837123141    0.4398441421545840    0.2514612402973384 Se
   0.6217542746782740    0.9400991960025067    0.2508418685170923 Se
