Fe9 Pt3                                 
   1.00000000000000     
     3.9717486436715812    0.0000000000000000    0.0000000000000000
     0.0000000000000000    3.6963054236346800    0.0000000000000000
     0.0000000000000000    0.0000000000000000   11.7159859301924563
  Fe              Pt            
     9     3
Direct
  0.0000000000000000  0.5000000000000000  0.1666601957707385
  0.0000000000000000  0.5000000000000000  0.4993413324311504
  0.0000000000000000  0.5000000000000000  0.8340049520366009
  0.5000000000000000  0.5000000000000000  0.0031758755329321
  0.5000000000000000  0.5000000000000000  0.3301104867514937
  0.5000000000000000  0.5000000000000000  0.6667080043083828
  0.5000000000000000  0.0000000000000000  0.1666558837212548
  0.5000000000000000  0.0000000000000000  0.4978558761819443
  0.5000000000000000  0.0000000000000000  0.8354862582155320
  0.0000000000000000  0.0000000000000000  0.0059397691682008
  0.0000000000000000  0.0000000000000000  0.3273755462131618
  0.0000000000000000  0.0000000000000000  0.6666858196686007
 
  0.00000000E+00  0.00000000E+00  0.00000000E+00
  0.00000000E+00  0.00000000E+00  0.00000000E+00
  0.00000000E+00  0.00000000E+00  0.00000000E+00
  0.00000000E+00  0.00000000E+00  0.00000000E+00
  0.00000000E+00  0.00000000E+00  0.00000000E+00
  0.00000000E+00  0.00000000E+00  0.00000000E+00
  0.00000000E+00  0.00000000E+00  0.00000000E+00
  0.00000000E+00  0.00000000E+00  0.00000000E+00
  0.00000000E+00  0.00000000E+00  0.00000000E+00
  0.00000000E+00  0.00000000E+00  0.00000000E+00
  0.00000000E+00  0.00000000E+00  0.00000000E+00
  0.00000000E+00  0.00000000E+00  0.00000000E+00
