ALGO = Normal
EDIFF = 1e-06
EDIFFG = -0.01
ENCUT = 520
GGA = Pe
IBRION = -1
ISIF = 4
ISMEAR = -5
ISPIN = 2
KPAR = 4
LCHARG = True
LORBIT = 11
LREAL = False
LWAVE = False
MAGMOM = 1*-2.79 2*2.967 2*2.786 1*2.921 1*2.591 2*2.837 2*0.121 1*0.3
NELM = 200
NSW = 0
PREC = Accurate
SIGMA = 0.2
