Fe8 Se8                                 
   1.00000000000000     
     4.7659281431049614   -5.5600498101370297    0.0000000000000000
     4.7659281431049614    5.5600498101370297   -0.0000000000000000
     0.0000000000000000    0.0000000000000000    5.4908151203384454
   Fe   Se
     8     8
Direct
 -0.0000000000000000 -0.0000000000000000 -0.0000000000000000
 -0.0000000000000000  0.5000000000000000 -0.0000000000000000
  0.5000000000000000 -0.0000000000000000 -0.0000000000000000
  0.5000000000000000  0.5000000000000000 -0.0000000000000000
  0.2500000000000000  0.2500000000000000 -0.0000000000000000
  0.2500000000000000  0.7500000000000000 -0.0000000000000000
  0.7500000000000000  0.2500000000000000 -0.0000000000000000
  0.7500000000000000  0.7500000000000000 -0.0000000000000000
  0.3750000000000000  0.1250000000000000  0.6688341666320686
  0.3750000000000000  0.6250000000000000  0.6688341666320686
  0.8750000000000000  0.1250000000000000  0.6688341666320686
  0.8750000000000000  0.6250000000000000  0.6688341666320686
  0.1250000000000000  0.3750000000000000  0.3311658333679314
  0.1250000000000000  0.8750000000000000  0.3311658333679314
  0.6250000000000000  0.3750000000000000  0.3311658333679314
  0.6250000000000000  0.8750000000000000  0.3311658333679314
 
  0.00000000E+00  0.00000000E+00  0.00000000E+00
  0.00000000E+00  0.00000000E+00  0.00000000E+00
  0.00000000E+00  0.00000000E+00  0.00000000E+00
  0.00000000E+00  0.00000000E+00  0.00000000E+00
  0.00000000E+00  0.00000000E+00  0.00000000E+00
  0.00000000E+00  0.00000000E+00  0.00000000E+00
  0.00000000E+00  0.00000000E+00  0.00000000E+00
  0.00000000E+00  0.00000000E+00  0.00000000E+00
  0.00000000E+00  0.00000000E+00  0.00000000E+00
  0.00000000E+00  0.00000000E+00  0.00000000E+00
  0.00000000E+00  0.00000000E+00  0.00000000E+00
  0.00000000E+00  0.00000000E+00  0.00000000E+00
  0.00000000E+00  0.00000000E+00  0.00000000E+00
  0.00000000E+00  0.00000000E+00  0.00000000E+00
  0.00000000E+00  0.00000000E+00  0.00000000E+00
  0.00000000E+00  0.00000000E+00  0.00000000E+00
