CoNiV                                   
   3.58550000000000     
     1.1711293941219993    0.0000000000000000   -0.0017293368870972
     0.0000000000000000    1.3470837362302861    0.0000000000000000
    -0.0024493450534258    0.0000000000000000    1.6557426972475946
   Co   Ni
     6     6
Direct
  0.8340238620380021  0.2500000000000000  0.3372094759659419
  0.8340238620380021  0.7500000000000000  0.3372094759659419
  0.1653080275170282  0.2500000000000000  0.6644886827316014
  0.1653080275170282  0.7500000000000000  0.6644886827316014
  0.6672039408945167  0.0000000000000000  0.6650893207756781
  0.6672039408945167  0.5000000000000000  0.6650893207756781
  0.5006175961307378  0.2500000000000000  0.9990870109072603
  0.5006175961307378  0.7500000000000000  0.9990870109072603
  0.9997762554884559  0.0000000000000000  0.9989048463332821
  0.9997762554884559  0.5000000000000000  0.9989048463332821
  0.3330703179312593  0.0000000000000000  0.3352206632862362
  0.3330703179312593  0.5000000000000000  0.3352206632862362
 
  0.00000000E+00  0.00000000E+00  0.00000000E+00
  0.00000000E+00  0.00000000E+00  0.00000000E+00
  0.00000000E+00  0.00000000E+00  0.00000000E+00
  0.00000000E+00  0.00000000E+00  0.00000000E+00
  0.00000000E+00  0.00000000E+00  0.00000000E+00
  0.00000000E+00  0.00000000E+00  0.00000000E+00
  0.00000000E+00  0.00000000E+00  0.00000000E+00
  0.00000000E+00  0.00000000E+00  0.00000000E+00
  0.00000000E+00  0.00000000E+00  0.00000000E+00
  0.00000000E+00  0.00000000E+00  0.00000000E+00
  0.00000000E+00  0.00000000E+00  0.00000000E+00
  0.00000000E+00  0.00000000E+00  0.00000000E+00
