Fe9 Pt3                                 
   1.00000000000000     
     3.9155489021051806    0.0000000000000000    0.0000000000000000
     0.0000000000000000    3.6641926452508176    0.0000000000000000
     0.0000000000000000    0.0000000000000000   11.5701006521946113
  Fe              Pt            
     9     3
Direct
  0.0000000000000000  0.5000000000000000  0.1666542252504186
  0.0000000000000000  0.5000000000000000  0.4992706880501672
  0.0000000000000000  0.5000000000000000  0.8340723389667204
  0.5000000000000000  0.5000000000000000  0.0034740268736400
  0.5000000000000000  0.5000000000000000  0.3298851260336662
  0.5000000000000000  0.5000000000000000  0.6666405075984372
  0.5000000000000000  0.0000000000000000  0.1666557454091517
  0.5000000000000000  0.0000000000000000  0.4977458799248566
  0.5000000000000000  0.0000000000000000  0.8356004555746992
  0.0000000000000000  0.0000000000000000  0.0057664334623411
  0.0000000000000000  0.0000000000000000  0.3275959337396870
  0.0000000000000000  0.0000000000000000  0.6666386391162291
 
  0.00000000E+00  0.00000000E+00  0.00000000E+00
  0.00000000E+00  0.00000000E+00  0.00000000E+00
  0.00000000E+00  0.00000000E+00  0.00000000E+00
  0.00000000E+00  0.00000000E+00  0.00000000E+00
  0.00000000E+00  0.00000000E+00  0.00000000E+00
  0.00000000E+00  0.00000000E+00  0.00000000E+00
  0.00000000E+00  0.00000000E+00  0.00000000E+00
  0.00000000E+00  0.00000000E+00  0.00000000E+00
  0.00000000E+00  0.00000000E+00  0.00000000E+00
  0.00000000E+00  0.00000000E+00  0.00000000E+00
  0.00000000E+00  0.00000000E+00  0.00000000E+00
  0.00000000E+00  0.00000000E+00  0.00000000E+00
