ALGO = All
EDIFF = 1e-06
EDIFFG = -0.01
ENCUT = 520
GGA = Pe
IBRION = 2
ISIF = 4
ISMEAR = 1
ISPIN = 2
KPAR = 4
LCHARG = True
LORBIT = 11
LREAL = False
LWAVE = False
MAGMOM = 1*-2.701 2*2.918 2*2.725 1*2.877 1*2.525 1*2.792 1*2.793 2*0.127 1*0.306
NELM = 200
NSW = 100
PREC = Accurate
SIGMA = 0.2
