ALGO = All
EDIFF = 1e-06
EDIFFG = -0.01
ENCUT = 520
GGA = Pe
IBRION = 2
ISIF = 4
ISMEAR = 1
ISPIN = 2
KPAR = 4
LCHARG = True
LORBIT = 11
LREAL = False
LWAVE = False
MAGMOM = 1*-2.752 1*2.951 1*2.95 1*2.754 1*2.755 1*2.902 1*2.552 2*2.819 2*0.127 1*0.306
NELM = 200
NSW = 100
PREC = Accurate
SIGMA = 0.2
