Fe8 Se8                                 
   1.00000000000000     
     5.6946421132559690   -5.7120698766970728    0.9618424805461799
     4.8468919805663706    5.0323974932743347    1.1732028112860231
     1.3398002776212825    0.0420745010955832    6.3103768205566606
   Fe   Se
     8     8
Direct
  0.9730828179279087  0.9692390696733028  0.0116777365754728
  0.0269171820720912  0.5307609303266972  0.9883222634245270
  0.4730828179279088  0.9692390696733028  0.0116777365754728
  0.5269171820720913  0.5307609303266972  0.9883222634245270
  0.2500000000000000  0.2500000000000000  0.0000000000000000
  0.2500000000000000  0.7500000000000000  0.0000000000000000
  0.7500000000000000  0.2500000000000000  0.0000000000000000
  0.7500000000000000  0.7500000000000000  0.0000000000000000
  0.3292782277436916  0.0734195201559933  0.7225887289774457
  0.3472715550060507  0.5814245336863210  0.7230846788315695
  0.8292782277436849  0.0734195201559933  0.7225887289774457
  0.8472715550060508  0.5814245336863210  0.7230846788315695
  0.1707217722563083  0.4265804798440067  0.2774112710225546
  0.1527284449939493  0.9185754663136790  0.2769153211684378
  0.6707217722563151  0.4265804798440067  0.2774112710225546
  0.6527284449939492  0.9185754663136790  0.2769153211684378
 
  0.00000000E+00  0.00000000E+00  0.00000000E+00
  0.00000000E+00  0.00000000E+00  0.00000000E+00
  0.00000000E+00  0.00000000E+00  0.00000000E+00
  0.00000000E+00  0.00000000E+00  0.00000000E+00
  0.00000000E+00  0.00000000E+00  0.00000000E+00
  0.00000000E+00  0.00000000E+00  0.00000000E+00
  0.00000000E+00  0.00000000E+00  0.00000000E+00
  0.00000000E+00  0.00000000E+00  0.00000000E+00
  0.00000000E+00  0.00000000E+00  0.00000000E+00
  0.00000000E+00  0.00000000E+00  0.00000000E+00
  0.00000000E+00  0.00000000E+00  0.00000000E+00
  0.00000000E+00  0.00000000E+00  0.00000000E+00
  0.00000000E+00  0.00000000E+00  0.00000000E+00
  0.00000000E+00  0.00000000E+00  0.00000000E+00
  0.00000000E+00  0.00000000E+00  0.00000000E+00
  0.00000000E+00  0.00000000E+00  0.00000000E+00
