Fe8 Se8                                 
   1.00000000000000     
     5.6946421132559690   -5.7120698766970728    0.9618424805461799
     4.8468919805663706    5.0323974932743347    1.1732028112860231
     1.3398002776212825    0.0420745010955832    6.3103768205566606
   Fe   Se
     8     8
Direct
  0.9730828179279101  0.9692390696733000  0.0116777365754714
  0.0269171820720899  0.5307609303267000  0.9883222634245286
  0.4730828179279101  0.9692390696733000  0.0116777365754714
  0.5269171820720899  0.5307609303267000  0.9883222634245286
  0.2500000000000000  0.2500000000000000  0.0000000000000000
  0.2500000000000000  0.7500000000000000  0.0000000000000000
  0.7500000000000000  0.2500000000000000  0.0000000000000000
  0.7500000000000000  0.7500000000000000  0.0000000000000000
  0.3292782277436928  0.0734195201559942  0.7225887289774491
  0.3472715550060528  0.5814245336863237  0.7230846788315688
  0.8292782277436856  0.0734195201559942  0.7225887289774491
  0.8472715550060528  0.5814245336863237  0.7230846788315688
  0.1707217722563072  0.4265804798440058  0.2774112710225580
  0.1527284449939472  0.9185754663136763  0.2769153211684383
  0.6707217722563144  0.4265804798440058  0.2774112710225580
  0.6527284449939472  0.9185754663136763  0.2769153211684383
 
  0.00000000E+00  0.00000000E+00  0.00000000E+00
  0.00000000E+00  0.00000000E+00  0.00000000E+00
  0.00000000E+00  0.00000000E+00  0.00000000E+00
  0.00000000E+00  0.00000000E+00  0.00000000E+00
  0.00000000E+00  0.00000000E+00  0.00000000E+00
  0.00000000E+00  0.00000000E+00  0.00000000E+00
  0.00000000E+00  0.00000000E+00  0.00000000E+00
  0.00000000E+00  0.00000000E+00  0.00000000E+00
  0.00000000E+00  0.00000000E+00  0.00000000E+00
  0.00000000E+00  0.00000000E+00  0.00000000E+00
  0.00000000E+00  0.00000000E+00  0.00000000E+00
  0.00000000E+00  0.00000000E+00  0.00000000E+00
  0.00000000E+00  0.00000000E+00  0.00000000E+00
  0.00000000E+00  0.00000000E+00  0.00000000E+00
  0.00000000E+00  0.00000000E+00  0.00000000E+00
  0.00000000E+00  0.00000000E+00  0.00000000E+00
