ALGO = Fast
EDIFF = 0.0002
ENCUT = 550
IBRION = -1
ISIF = 4
ISMEAR = -5
ISPIN = 2
IVDW = 13
LASPH = True
LMAXMIX = 4
LORBIT = 11
LREAL = Auto
LWAVE = False
MAGMOM = 1*2.703 2*-2.703 1*2.703 1*-2.429 1*-1.914 1*2.429 1*1.914 1*-0.004 1*-0.011 1*0.004 1*0.011 1*-0.004 1*-0.011 1*0.004 1*0.011
NELM = 100
NSW = 0
PREC = Accurate
SIGMA = 0.05
