Fe8 Se8                                 
   1.00000000000000     
     5.4613607630921601   -5.7885814460308769    1.1239126987780863
     4.9194822801714819    5.3320239764927972    1.1598980658093085
     1.4245702170198826   -0.0108359900464459    6.2172260087158682
   Fe   Se
     8     8
Direct
 -0.0256605708509400 -0.0247732646685884  0.0158490827891098
  0.0256605708509400  0.5247732646685883 -0.0158490827891098
  0.4743394291490600 -0.0247732646685884  0.0158490827891098
  0.5256605708509400  0.5247732646685883 -0.0158490827891098
  0.2500000000000000  0.2500000000000000 -0.0000000000000000
  0.2500000000000000  0.7500000000000000 -0.0000000000000000
  0.7500000000000000  0.2500000000000000 -0.0000000000000000
  0.7500000000000000  0.7500000000000000 -0.0000000000000000
  0.3272629006091246  0.0845765991085339  0.7189838856116650
  0.3474555014678346  0.5808372784058898  0.7182603859300478
  0.8272629006091242  0.0845765991085339  0.7189838856116649
  0.8474555014678351  0.5808372784058898  0.7182603859300478
  0.1727370993908756  0.4154234008914663  0.2810161143883350
  0.1525444985321655  0.9191627215941102  0.2817396140699523
  0.6727370993908758  0.4154234008914663  0.2810161143883350
  0.6525444985321649  0.9191627215941102  0.2817396140699523
 
  0.00000000E+00  0.00000000E+00  0.00000000E+00
  0.00000000E+00  0.00000000E+00  0.00000000E+00
  0.00000000E+00  0.00000000E+00  0.00000000E+00
  0.00000000E+00  0.00000000E+00  0.00000000E+00
  0.00000000E+00  0.00000000E+00  0.00000000E+00
  0.00000000E+00  0.00000000E+00  0.00000000E+00
  0.00000000E+00  0.00000000E+00  0.00000000E+00
  0.00000000E+00  0.00000000E+00  0.00000000E+00
  0.00000000E+00  0.00000000E+00  0.00000000E+00
  0.00000000E+00  0.00000000E+00  0.00000000E+00
  0.00000000E+00  0.00000000E+00  0.00000000E+00
  0.00000000E+00  0.00000000E+00  0.00000000E+00
  0.00000000E+00  0.00000000E+00  0.00000000E+00
  0.00000000E+00  0.00000000E+00  0.00000000E+00
  0.00000000E+00  0.00000000E+00  0.00000000E+00
  0.00000000E+00  0.00000000E+00  0.00000000E+00
