Fe8 Se8                                 
   1.00000000000000     
     4.9439026128026011   -5.0124235155519239    1.1671569335799818
     4.6780032356007029    4.8588571945541128    1.0368058494049770
     1.0881753375659680   -0.1013294738811561    6.9698997839647507
   Fe   Se
     8     8
Direct
  0.9576151166206270  0.0001191989993371  0.9997349583791730
  0.0423848833793729  0.4998808010006701  0.0002650416208269
  0.4576151166206271  0.0001191989993371  0.9997349583791730
  0.5423848833793730  0.4998808010006701  0.0002650416208269
  0.2500000000000000  0.2500000000000000 -0.0000000000000000
  0.2500000000000000  0.7500000000000000 -0.0000000000000000
  0.7500000000000000  0.2500000000000000 -0.0000000000000000
  0.7500000000000000  0.7500000000000000 -0.0000000000000000
  0.2575429171608601  0.0626061189402300  0.7548273005318198
  0.3774481414921886  0.5624054138701420  0.7551330013541259
  0.7575429171608530  0.0626061189402300  0.7548273005318198
  0.8774481414921956  0.5624054138701420  0.7551330013541259
  0.2424570828391398  0.4373938810597700  0.2451726994681873
  0.1225518585078114  0.9375945861298580  0.2448669986458810
  0.7424570828391470  0.4373938810597700  0.2451726994681873
  0.6225518585078044  0.9375945861298580  0.2448669986458810
 
  0.00000000E+00  0.00000000E+00  0.00000000E+00
  0.00000000E+00  0.00000000E+00  0.00000000E+00
  0.00000000E+00  0.00000000E+00  0.00000000E+00
  0.00000000E+00  0.00000000E+00  0.00000000E+00
  0.00000000E+00  0.00000000E+00  0.00000000E+00
  0.00000000E+00  0.00000000E+00  0.00000000E+00
  0.00000000E+00  0.00000000E+00  0.00000000E+00
  0.00000000E+00  0.00000000E+00  0.00000000E+00
  0.00000000E+00  0.00000000E+00  0.00000000E+00
  0.00000000E+00  0.00000000E+00  0.00000000E+00
  0.00000000E+00  0.00000000E+00  0.00000000E+00
  0.00000000E+00  0.00000000E+00  0.00000000E+00
  0.00000000E+00  0.00000000E+00  0.00000000E+00
  0.00000000E+00  0.00000000E+00  0.00000000E+00
  0.00000000E+00  0.00000000E+00  0.00000000E+00
  0.00000000E+00  0.00000000E+00  0.00000000E+00
