Fe9 Pt3
1.0
   3.7330399999999999    0.0000000000000000    0.0000000000000000
   0.0000000000000000    3.7330399999999999    0.0000000000000000
   0.0000000000000000    0.0000000000000000   11.1991099999999992
Fe Pt
9 3
direct
   1.0000000000000000    0.5000000000000000    0.1666700000000000 Fe
   1.0000000000000000    0.5000000000000000    0.5000000000000000 Fe
   1.0000000000000000    0.5000000000000000    0.8333300000000000 Fe
   0.5000000000000000    0.5000000000000000    1.0000000000000000 Fe
   0.5000000000000000    0.5000000000000000    0.3333300000000000 Fe
   0.5000000000000000    0.5000000000000000    0.6666700000000000 Fe
   0.5000000000000000    1.0000000000000000    0.1666700000000000 Fe
   0.5000000000000000    1.0000000000000000    0.5000000000000000 Fe
   0.5000000000000000    1.0000000000000000    0.8333300000000000 Fe
   1.0000000000000000    1.0000000000000000    1.0000000000000000 Pt
   1.0000000000000000    1.0000000000000000    0.3333300000000000 Pt
   1.0000000000000000    1.0000000000000000    0.6666700000000000 Pt
