Fe8 Se8                                 
   1.00000000000000     
     4.9546526195162777   -5.0238178700232821    1.1637541673584706
     4.6939623104550252    4.8720999585187439    1.0186667907172573
     1.1162385477344958   -0.1130039781073397    6.7912913449756100
   Fe   Se
     8     8
Direct
  0.9576747032999915  0.0000951636072475 -0.0002179457348690
  0.0423252967000083  0.4999048363927595  0.0002179457348690
  0.4576747032999917  0.0000951636072475 -0.0002179457348690
  0.5423252967000085  0.4999048363927595  0.0002179457348690
  0.2500000000000000  0.2500000000000000  0.0000000000000000
  0.2500000000000000  0.7500000000000000  0.0000000000000000
  0.7500000000000000  0.2500000000000000  0.0000000000000000
  0.7500000000000000  0.7500000000000000  0.0000000000000000
  0.2590437077760347  0.0628567285700719  0.7481764907828679
  0.3789425515600702  0.5626844396706218  0.7486165341183748
  0.7590437077760276  0.0628567285700719  0.7481764907828677
  0.8789425515600774  0.5626844396706218  0.7486165341183748
  0.2409562922239653  0.4371432714299281  0.2518235092171393
  0.1210574484399298  0.9373155603293782  0.2513834658816323
  0.7409562922239724  0.4371432714299281  0.2518235092171393
  0.6210574484399226  0.9373155603293782  0.2513834658816323
 
  0.00000000E+00  0.00000000E+00  0.00000000E+00
  0.00000000E+00  0.00000000E+00  0.00000000E+00
  0.00000000E+00  0.00000000E+00  0.00000000E+00
  0.00000000E+00  0.00000000E+00  0.00000000E+00
  0.00000000E+00  0.00000000E+00  0.00000000E+00
  0.00000000E+00  0.00000000E+00  0.00000000E+00
  0.00000000E+00  0.00000000E+00  0.00000000E+00
  0.00000000E+00  0.00000000E+00  0.00000000E+00
  0.00000000E+00  0.00000000E+00  0.00000000E+00
  0.00000000E+00  0.00000000E+00  0.00000000E+00
  0.00000000E+00  0.00000000E+00  0.00000000E+00
  0.00000000E+00  0.00000000E+00  0.00000000E+00
  0.00000000E+00  0.00000000E+00  0.00000000E+00
  0.00000000E+00  0.00000000E+00  0.00000000E+00
  0.00000000E+00  0.00000000E+00  0.00000000E+00
  0.00000000E+00  0.00000000E+00  0.00000000E+00
