Fe8 Se8
1.0
   4.9062837819833263   -4.9732752793008670    1.1555183266780187
   4.6483378001278801    4.8264626956069590    1.0251999681283113
   1.0766170994216102   -0.1007520881347273    6.9133666869706865
Fe Se
8 8
direct
   0.9578615932914403    0.0001071826640668    0.9998224212645326 Fe
   0.0421384067085597    0.4998928173359403    0.0001775787354674 Fe
   0.4578615932914403    0.0001071826640668    0.9998224212645326 Fe
   0.5421384067085597    0.4998928173359403    0.0001775787354674 Fe
   0.2500000000000000    0.2500000000000000    0.0000000000000000 Fe
   0.2500000000000000    0.7500000000000000    0.0000000000000000 Fe
   0.7500000000000000    0.2500000000000000    0.0000000000000000 Fe
   0.7500000000000000    0.7500000000000000    0.0000000000000000 Fe
   0.2574857302163736    0.0626123197107944    0.7541383411540110 Se
   0.3777805382796871    0.5623489679760212    0.7546427658744221 Se
   0.7574857302163664    0.0626123197107944    0.7541383411540110 Se
   0.8777805382796942    0.5623489679760212    0.7546427658744221 Se
   0.2425142697836264    0.4373876802892056    0.2458616588459961 Se
   0.1222194617203129    0.9376510320239788    0.2453572341255850 Se
   0.7425142697836336    0.4373876802892056    0.2458616588459961 Se
   0.6222194617203058    0.9376510320239788    0.2453572341255850 Se
