Fe8 Se8
1.0
   4.8619736178289106   -5.8381093739987069    0.0000000000000000
   4.8619736178289106    5.8381093739987069    0.0000000000000000
   0.0000000000000000    0.0000000000000000    5.8658291968054694
Fe Se
8 8
direct
   0.0000000000000000    0.0000000000000000    0.0000000000000000 Fe
   0.0000000000000000    0.5000000000000000    0.0000000000000000 Fe
   0.5000000000000000    0.0000000000000000    0.0000000000000000 Fe
   0.5000000000000000    0.5000000000000000    0.0000000000000000 Fe
   0.2500000000000000    0.2500000000000000    0.0000000000000000 Fe
   0.2500000000000000    0.7500000000000000    0.0000000000000000 Fe
   0.7500000000000000    0.2500000000000000    0.0000000000000000 Fe
   0.7500000000000000    0.7500000000000000    0.0000000000000000 Fe
   0.3750000000000000    0.1250000000000000    0.7022240534172539 Se
   0.3750000000000000    0.6250000000000000    0.7022240534172539 Se
   0.8750000000000000    0.1250000000000000    0.7022240534172539 Se
   0.8750000000000000    0.6250000000000000    0.7022240534172539 Se
   0.1250000000000000    0.3750000000000000    0.2977759465827461 Se
   0.1250000000000000    0.8750000000000000    0.2977759465827461 Se
   0.6250000000000000    0.3750000000000000    0.2977759465827461 Se
   0.6250000000000000    0.8750000000000000    0.2977759465827461 Se
