Fe8 Se8                                 
   1.00000000000000     
     4.8822322540725240   -5.8266527865771458    0.0000000000000000
     4.8822322540725240    5.8266527865771458   -0.0000000000000000
     0.0000000000000000   -0.0000000000000000    5.8529749218912848
   Fe   Se
     8     8
Direct
  0.0000000000000000  0.0000000000000000 -0.0000000000000000
  0.0000000000000000  0.5000000000000000 -0.0000000000000000
  0.5000000000000000  0.0000000000000000 -0.0000000000000000
  0.5000000000000000  0.5000000000000000 -0.0000000000000000
  0.2500000000000000  0.2500000000000000 -0.0000000000000000
  0.2500000000000000  0.7500000000000000 -0.0000000000000000
  0.7500000000000000  0.2500000000000000 -0.0000000000000000
  0.7500000000000000  0.7500000000000000 -0.0000000000000000
  0.3750000000000000  0.1250000000000000  0.6977372298436806
  0.3750000000000000  0.6250000000000000  0.6977372298436806
  0.8750000000000000  0.1250000000000000  0.6977372298436806
  0.8750000000000000  0.6250000000000000  0.6977372298436806
  0.1250000000000000  0.3750000000000000  0.3022627701563196
  0.1250000000000000  0.8750000000000000  0.3022627701563196
  0.6250000000000000  0.3750000000000000  0.3022627701563196
  0.6250000000000000  0.8750000000000000  0.3022627701563196
 
  0.00000000E+00  0.00000000E+00  0.00000000E+00
  0.00000000E+00  0.00000000E+00  0.00000000E+00
  0.00000000E+00  0.00000000E+00  0.00000000E+00
  0.00000000E+00  0.00000000E+00  0.00000000E+00
  0.00000000E+00  0.00000000E+00  0.00000000E+00
  0.00000000E+00  0.00000000E+00  0.00000000E+00
  0.00000000E+00  0.00000000E+00  0.00000000E+00
  0.00000000E+00  0.00000000E+00  0.00000000E+00
  0.00000000E+00  0.00000000E+00  0.00000000E+00
  0.00000000E+00  0.00000000E+00  0.00000000E+00
  0.00000000E+00  0.00000000E+00  0.00000000E+00
  0.00000000E+00  0.00000000E+00  0.00000000E+00
  0.00000000E+00  0.00000000E+00  0.00000000E+00
  0.00000000E+00  0.00000000E+00  0.00000000E+00
  0.00000000E+00  0.00000000E+00  0.00000000E+00
  0.00000000E+00  0.00000000E+00  0.00000000E+00
