Fe8 Se8                                 
   1.00000000000000     
     4.6551526085110719   -5.5110919744631035   -0.0000000000000000
     4.6551526085110719    5.5110919744631035    0.0000000000000000
     0.0000000000000000    0.0000000000000000    5.2621374338289666
   Fe   Se
     8     8
Direct
  0.0000000000000000  0.0000000000000000  0.0000000000000000
  0.0000000000000000  0.5000000000000000  0.0000000000000000
  0.5000000000000000  0.0000000000000000 -0.0000000000000000
  0.5000000000000000  0.5000000000000000  0.0000000000000000
  0.2500000000000000  0.2500000000000000 -0.0000000000000000
  0.2500000000000000  0.7500000000000000 -0.0000000000000000
  0.7500000000000000  0.2500000000000000  0.0000000000000000
  0.7500000000000000  0.7500000000000000  0.0000000000000000
  0.3750000000000000  0.1250000000000000  0.6574874308235525
  0.3750000000000000  0.6250000000000000  0.6574874308235525
  0.8750000000000000  0.1250000000000000  0.6574874308235525
  0.8750000000000000  0.6250000000000000  0.6574874308235525
  0.1250000000000000  0.3750000000000000  0.3425125691764476
  0.1250000000000000  0.8750000000000000  0.3425125691764476
  0.6250000000000000  0.3750000000000000  0.3425125691764476
  0.6250000000000000  0.8750000000000000  0.3425125691764476
 
  0.00000000E+00  0.00000000E+00  0.00000000E+00
  0.00000000E+00  0.00000000E+00  0.00000000E+00
  0.00000000E+00  0.00000000E+00  0.00000000E+00
  0.00000000E+00  0.00000000E+00  0.00000000E+00
  0.00000000E+00  0.00000000E+00  0.00000000E+00
  0.00000000E+00  0.00000000E+00  0.00000000E+00
  0.00000000E+00  0.00000000E+00  0.00000000E+00
  0.00000000E+00  0.00000000E+00  0.00000000E+00
  0.00000000E+00  0.00000000E+00  0.00000000E+00
  0.00000000E+00  0.00000000E+00  0.00000000E+00
  0.00000000E+00  0.00000000E+00  0.00000000E+00
  0.00000000E+00  0.00000000E+00  0.00000000E+00
  0.00000000E+00  0.00000000E+00  0.00000000E+00
  0.00000000E+00  0.00000000E+00  0.00000000E+00
  0.00000000E+00  0.00000000E+00  0.00000000E+00
  0.00000000E+00  0.00000000E+00  0.00000000E+00
