CoNiV                                   
   3.55000000000000     
     1.1710539116742718    0.0000000000000000   -0.0017397051739369
     0.0000000000000000    1.3473195364085440    0.0000000000000000
    -0.0024642070376245    0.0000000000000000    1.6555596682877112
   Co   Ni
     6     6
Direct
  0.8339406176371469  0.2500000000000000  0.3368343006227335
  0.8339406176371469  0.7500000000000000  0.3368343006227335
  0.1654437110846487  0.2500000000000000  0.6647138784309163
  0.1654437110846487  0.7500000000000000  0.6647138784309163
  0.6671021644962423  0.0000000000000000  0.6652264297982953
  0.6671021644962423  0.5000000000000000  0.6652264297982953
  0.5006159987262109  0.2500000000000000  0.9992204912422125
  0.5006159987262109  0.7500000000000000  0.9992204912422125
  0.9998438672311067  0.0000000000000000  0.9989782007222914
  0.9998438672311067  0.5000000000000000  0.9989782007222914
  0.3330536408246587  0.0000000000000000  0.3350266991835653
  0.3330536408246587  0.5000000000000000  0.3350266991835653
 
  0.00000000E+00  0.00000000E+00  0.00000000E+00
  0.00000000E+00  0.00000000E+00  0.00000000E+00
  0.00000000E+00  0.00000000E+00  0.00000000E+00
  0.00000000E+00  0.00000000E+00  0.00000000E+00
  0.00000000E+00  0.00000000E+00  0.00000000E+00
  0.00000000E+00  0.00000000E+00  0.00000000E+00
  0.00000000E+00  0.00000000E+00  0.00000000E+00
  0.00000000E+00  0.00000000E+00  0.00000000E+00
  0.00000000E+00  0.00000000E+00  0.00000000E+00
  0.00000000E+00  0.00000000E+00  0.00000000E+00
  0.00000000E+00  0.00000000E+00  0.00000000E+00
  0.00000000E+00  0.00000000E+00  0.00000000E+00
