CoNiV                                   
   3.44350000000000     
     1.1709106620780616    0.0000000000000000   -0.0017134173550459
     0.0000000000000000    1.3476200678069676    0.0000000000000000
    -0.0024269516244848    0.0000000000000000    1.6553928511114262
   Co   Ni
     6     6
Direct
  0.8337900734009054  0.2500000000000000  0.3361261429316471
  0.8337900734009054  0.7500000000000000  0.3361261429316471
  0.1657529554741899  0.2500000000000000  0.6651226843851958
  0.1657529554741899  0.7500000000000000  0.6651226843851958
  0.6668813943280369  0.0000000000000000  0.6655652874625346
  0.6668813943280369  0.5000000000000000  0.6655652874625346
  0.5004779053718096  0.2500000000000000  0.9994686349238364
  0.5004779053718096  0.7500000000000000  0.9994686349238364
  0.9998513585789226  0.0000000000000000  0.9992046851989755
  0.9998513585789226  0.5000000000000000  0.9992046851989755
  0.3332463128461427  0.0000000000000000  0.3345125650978105
  0.3332463128461427  0.5000000000000000  0.3345125650978105
 
  0.00000000E+00  0.00000000E+00  0.00000000E+00
  0.00000000E+00  0.00000000E+00  0.00000000E+00
  0.00000000E+00  0.00000000E+00  0.00000000E+00
  0.00000000E+00  0.00000000E+00  0.00000000E+00
  0.00000000E+00  0.00000000E+00  0.00000000E+00
  0.00000000E+00  0.00000000E+00  0.00000000E+00
  0.00000000E+00  0.00000000E+00  0.00000000E+00
  0.00000000E+00  0.00000000E+00  0.00000000E+00
  0.00000000E+00  0.00000000E+00  0.00000000E+00
  0.00000000E+00  0.00000000E+00  0.00000000E+00
  0.00000000E+00  0.00000000E+00  0.00000000E+00
  0.00000000E+00  0.00000000E+00  0.00000000E+00
