Fe9 Pt3                                 
   1.00000000000000     
     3.6844144921683175    0.0000000000000000    0.0000000000000000
     0.0000000000000000    3.6844400849836969    0.0000000000000000
     0.0000000000000000    0.0000000000000000   11.1233849400044615
  Fe              Pt            
     9     3
Direct
  0.0000000000000000  0.5000000000000000  0.1666603177055137
  0.0000000000000000  0.5000000000000000  0.4996339084061958
  0.0000000000000000  0.5000000000000000  0.8337048255255155
  0.5000000000000000  0.5000000000000000  0.9936653650750173
  0.5000000000000000  0.5000000000000000  0.3396818321951969
  0.5000000000000000  0.5000000000000000  0.6666643420414005
  0.5000000000000000  0.0000000000000000  0.1666602353205917
  0.5000000000000000  0.0000000000000000  0.4996253918369149
  0.5000000000000000  0.0000000000000000  0.8337134073091548
  0.0000000000000000  0.0000000000000000  0.0045286361014476
  0.0000000000000000  0.0000000000000000  0.3287904198651148
  0.0000000000000000  0.0000000000000000  0.6666713186179294
 
  0.00000000E+00  0.00000000E+00  0.00000000E+00
  0.00000000E+00  0.00000000E+00  0.00000000E+00
  0.00000000E+00  0.00000000E+00  0.00000000E+00
  0.00000000E+00  0.00000000E+00  0.00000000E+00
  0.00000000E+00  0.00000000E+00  0.00000000E+00
  0.00000000E+00  0.00000000E+00  0.00000000E+00
  0.00000000E+00  0.00000000E+00  0.00000000E+00
  0.00000000E+00  0.00000000E+00  0.00000000E+00
  0.00000000E+00  0.00000000E+00  0.00000000E+00
  0.00000000E+00  0.00000000E+00  0.00000000E+00
  0.00000000E+00  0.00000000E+00  0.00000000E+00
  0.00000000E+00  0.00000000E+00  0.00000000E+00
