ALGO = All
EDIFF = 1e-06
EDIFFG = -0.01
ENCUT = 520
GGA = Pe
IBRION = 2
ISIF = 4
ISMEAR = 1
ISPIN = 2
KPAR = 4
LCHARG = True
LORBIT = 11
LREAL = False
LWAVE = False
MAGMOM = 1*-2.315 2*2.569 1*2.474 1*2.475 1*2.678 1*-2.316 2*2.569 2*0.05 1*0.288
NELM = 200
NSW = 100
PREC = Accurate
SIGMA = 0.2
SYMPREC = 9.999999999999999e-05
