ALGO = All
EDIFF = 1e-06
EDIFFG = -0.01
ENCUT = 520
GGA = Pe
IBRION = 2
ISIF = 4
ISMEAR = 1
ISPIN = 2
KPAR = 4
LCHARG = True
LORBIT = 11
LREAL = False
LWAVE = False
MAGMOM = 1*-2.378 1*2.627 1*2.628 1*2.563 1*2.562 1*2.738 1*-2.377 1*2.628 1*2.629 2*0.061 1*0.296
NELM = 200
NSW = 100
PREC = Accurate
SIGMA = 0.2
