Fe8 Se8                                 
   1.00000000000000     
     4.8295627671007537   -5.7322804546169248    0.0000000000000000
     4.8295627671007537    5.7322804546169248   -0.0000000000000000
     0.0000000000000000    0.0000000000000000    5.6349407423706950
   Fe   Se
     8     8
Direct
  0.0000000000000000  0.0000000000000000 -0.0000000000000000
  0.0000000000000000  0.5000000000000000 -0.0000000000000000
  0.5000000000000000  0.0000000000000000 -0.0000000000000000
  0.5000000000000000  0.5000000000000000 -0.0000000000000000
  0.2500000000000000  0.2500000000000000 -0.0000000000000000
  0.2500000000000000  0.7500000000000000 -0.0000000000000000
  0.7500000000000000  0.2500000000000000 -0.0000000000000000
  0.7500000000000000  0.7500000000000000 -0.0000000000000000
  0.3750000000000000  0.1250000000000000  0.6819753909456847
  0.3750000000000000  0.6250000000000000  0.6819753909456847
  0.8750000000000000  0.1250000000000000  0.6819753909456847
  0.8750000000000000  0.6250000000000000  0.6819753909456847
  0.1250000000000000  0.3750000000000000  0.3180246090543153
  0.1250000000000000  0.8750000000000000  0.3180246090543153
  0.6250000000000000  0.3750000000000000  0.3180246090543153
  0.6250000000000000  0.8750000000000000  0.3180246090543153
 
  0.00000000E+00  0.00000000E+00  0.00000000E+00
  0.00000000E+00  0.00000000E+00  0.00000000E+00
  0.00000000E+00  0.00000000E+00  0.00000000E+00
  0.00000000E+00  0.00000000E+00  0.00000000E+00
  0.00000000E+00  0.00000000E+00  0.00000000E+00
  0.00000000E+00  0.00000000E+00  0.00000000E+00
  0.00000000E+00  0.00000000E+00  0.00000000E+00
  0.00000000E+00  0.00000000E+00  0.00000000E+00
  0.00000000E+00  0.00000000E+00  0.00000000E+00
  0.00000000E+00  0.00000000E+00  0.00000000E+00
  0.00000000E+00  0.00000000E+00  0.00000000E+00
  0.00000000E+00  0.00000000E+00  0.00000000E+00
  0.00000000E+00  0.00000000E+00  0.00000000E+00
  0.00000000E+00  0.00000000E+00  0.00000000E+00
  0.00000000E+00  0.00000000E+00  0.00000000E+00
  0.00000000E+00  0.00000000E+00  0.00000000E+00
