Fe8 Se8
1.0
   4.8042120883739727   -5.7451672978068125    0.0000000000000000
   4.8042120883739727    5.7451672978068125    0.0000000000000000
   0.0000000000000000    0.0000000000000000    5.6519686847660457
Fe Se
8 8
direct
   0.0000000000000000    0.0000000000000000    0.0000000000000000 Fe
   0.0000000000000000    0.5000000000000000    0.0000000000000000 Fe
   0.5000000000000000    0.0000000000000000    0.0000000000000000 Fe
   0.5000000000000000    0.5000000000000000    0.0000000000000000 Fe
   0.2500000000000000    0.2500000000000000    0.0000000000000000 Fe
   0.2500000000000000    0.7500000000000000    0.0000000000000000 Fe
   0.7500000000000000    0.2500000000000000    0.0000000000000000 Fe
   0.7500000000000000    0.7500000000000000    0.0000000000000000 Fe
   0.3750000000000000    0.1250000000000000    0.6864607718431159 Se
   0.3750000000000000    0.6250000000000000    0.6864607718431159 Se
   0.8750000000000000    0.1250000000000000    0.6864607718431159 Se
   0.8750000000000000    0.6250000000000000    0.6864607718431159 Se
   0.1250000000000000    0.3750000000000000    0.3135392281568841 Se
   0.1250000000000000    0.8750000000000000    0.3135392281568841 Se
   0.6250000000000000    0.3750000000000000    0.3135392281568841 Se
   0.6250000000000000    0.8750000000000000    0.3135392281568841 Se
