Fe8 Se8
1.0
   4.7584267997558527   -5.5725437669659543    0.0000000000000000
   4.7584267997558527    5.5725437669659543    0.0000000000000000
   0.0000000000000000    0.0000000000000000    5.4871409015328663
Fe Se
8 8
direct
   0.0000000000000000    0.0000000000000000    0.0000000000000000 Fe
   0.0000000000000000    0.5000000000000000    0.0000000000000000 Fe
   0.5000000000000000    0.0000000000000000    0.0000000000000000 Fe
   0.5000000000000000    0.5000000000000000    0.0000000000000000 Fe
   0.2500000000000000    0.2500000000000000    0.0000000000000000 Fe
   0.2500000000000000    0.7500000000000000    0.0000000000000000 Fe
   0.7500000000000000    0.2500000000000000    0.0000000000000000 Fe
   0.7500000000000000    0.7500000000000000    0.0000000000000000 Fe
   0.3750000000000000    0.1250000000000000    0.6724095810067752 Se
   0.3750000000000000    0.6250000000000000    0.6724095810067752 Se
   0.8750000000000000    0.1250000000000000    0.6724095810067752 Se
   0.8750000000000000    0.6250000000000000    0.6724095810067752 Se
   0.1250000000000000    0.3750000000000000    0.3275904189932248 Se
   0.1250000000000000    0.8750000000000000    0.3275904189932248 Se
   0.6250000000000000    0.3750000000000000    0.3275904189932248 Se
   0.6250000000000000    0.8750000000000000    0.3275904189932248 Se
