Fe8 Se8                                 
   1.00000000000000     
     4.9429589214404306   -5.0102869205257399    1.1692330999278344
     4.6796309230075268    4.8615272899691702    1.0483633863818915
     1.0655990231747459   -0.0930837028632223    7.1125795685726434
   Fe   Se
     8     8
Direct
  0.9578822774362231  0.0000939870966840  0.9998225581383392
  0.0421177225637769  0.4999060129033231  0.0001774418616608
  0.4578822774362231  0.0000939870966840  0.9998225581383392
  0.5421177225637769  0.4999060129033231  0.0001774418616608
  0.2500000000000000  0.2500000000000000 -0.0000000000000000
  0.2500000000000000  0.7500000000000000 -0.0000000000000000
  0.7500000000000000  0.2500000000000000 -0.0000000000000000
  0.7500000000000000  0.7500000000000000 -0.0000000000000000
  0.2567245995418074  0.0622103168865418  0.7599160949834634
  0.3761155880120803  0.5620796186948890  0.7602406669254419
  0.7567245995418002  0.0622103168865418  0.7599160949834634
  0.8761155880120803  0.5620796186948890  0.7602406669254419
  0.2432754004581926  0.4377896831134582  0.2400839050165436
  0.1238844119879197  0.9379203813051110  0.2397593330745653
  0.7432754004581998  0.4377896831134582  0.2400839050165436
  0.6238844119879197  0.9379203813051110  0.2397593330745653
 
  0.00000000E+00  0.00000000E+00  0.00000000E+00
  0.00000000E+00  0.00000000E+00  0.00000000E+00
  0.00000000E+00  0.00000000E+00  0.00000000E+00
  0.00000000E+00  0.00000000E+00  0.00000000E+00
  0.00000000E+00  0.00000000E+00  0.00000000E+00
  0.00000000E+00  0.00000000E+00  0.00000000E+00
  0.00000000E+00  0.00000000E+00  0.00000000E+00
  0.00000000E+00  0.00000000E+00  0.00000000E+00
  0.00000000E+00  0.00000000E+00  0.00000000E+00
  0.00000000E+00  0.00000000E+00  0.00000000E+00
  0.00000000E+00  0.00000000E+00  0.00000000E+00
  0.00000000E+00  0.00000000E+00  0.00000000E+00
  0.00000000E+00  0.00000000E+00  0.00000000E+00
  0.00000000E+00  0.00000000E+00  0.00000000E+00
  0.00000000E+00  0.00000000E+00  0.00000000E+00
  0.00000000E+00  0.00000000E+00  0.00000000E+00
