Fe8 Se8                                 
   1.00000000000000     
     4.9429185740570318   -5.0108716582120403    1.1711938757836700
     4.6806159037830311    4.8627724791146294    1.0486988682681118
     1.0676666202951370   -0.0941203110773618    7.1113365276671745
   Fe   Se
     8     8
Direct
  0.9579455259542442  0.0001074707711908  0.9997743834193713
  0.0420544740457558  0.4998925292288163  0.0002256165806287
  0.4579455259542442  0.0001074707711908  0.9997743834193713
  0.5420544740457558  0.4998925292288163  0.0002256165806287
  0.2500000000000000  0.2500000000000000  0.0000000000000000
  0.2500000000000000  0.7500000000000000  0.0000000000000000
  0.7500000000000000  0.2500000000000000  0.0000000000000000
  0.7500000000000000  0.7500000000000000  0.0000000000000000
  0.2566005862231293  0.0621138674007113  0.7592974432254636
  0.3763245397989579  0.5619705560133568  0.7597192341358578
  0.7566005862231222  0.0621138674007113  0.7592974432254636
  0.8763245397989650  0.5619705560133568  0.7597192341358578
  0.2433994137768707  0.4378861325992887  0.2407025567745436
  0.1236754602010421  0.9380294439866432  0.2402807658641493
  0.7433994137768778  0.4378861325992887  0.2407025567745436
  0.6236754602010350  0.9380294439866432  0.2402807658641493
 
  0.00000000E+00  0.00000000E+00  0.00000000E+00
  0.00000000E+00  0.00000000E+00  0.00000000E+00
  0.00000000E+00  0.00000000E+00  0.00000000E+00
  0.00000000E+00  0.00000000E+00  0.00000000E+00
  0.00000000E+00  0.00000000E+00  0.00000000E+00
  0.00000000E+00  0.00000000E+00  0.00000000E+00
  0.00000000E+00  0.00000000E+00  0.00000000E+00
  0.00000000E+00  0.00000000E+00  0.00000000E+00
  0.00000000E+00  0.00000000E+00  0.00000000E+00
  0.00000000E+00  0.00000000E+00  0.00000000E+00
  0.00000000E+00  0.00000000E+00  0.00000000E+00
  0.00000000E+00  0.00000000E+00  0.00000000E+00
  0.00000000E+00  0.00000000E+00  0.00000000E+00
  0.00000000E+00  0.00000000E+00  0.00000000E+00
  0.00000000E+00  0.00000000E+00  0.00000000E+00
  0.00000000E+00  0.00000000E+00  0.00000000E+00
