Fe8 Se8                                 
   1.00000000000000     
     4.9429185740570318   -5.0108716582120403    1.1711938757836700
     4.6806159037830311    4.8627724791146294    1.0486988682681118
     1.0676666202951370   -0.0941203110773618    7.1113365276671745
   Fe   Se
     8     8
Direct
  0.9579455259542428  0.0001074707711873  0.9997743834193705
  0.0420544740457572  0.4998925292288199  0.0002256165806295
  0.4579455259542429  0.0001074707711873  0.9997743834193705
  0.5420544740457572  0.4998925292288199  0.0002256165806295
  0.2500000000000000  0.2500000000000000  0.0000000000000000
  0.2500000000000000  0.7500000000000000  0.0000000000000000
  0.7500000000000000  0.2500000000000000  0.0000000000000000
  0.7500000000000000  0.7500000000000000  0.0000000000000000
  0.2566005862231284  0.0621138674007139  0.7592974432254618
  0.3763245397989591  0.5619705560133538  0.7597192341358607
  0.7566005862231213  0.0621138674007139  0.7592974432254618
  0.8763245397989662  0.5619705560133538  0.7597192341358607
  0.2433994137768716  0.4378861325992861  0.2407025567745454
  0.1236754602010409  0.9380294439866462  0.2402807658641464
  0.7433994137768787  0.4378861325992861  0.2407025567745454
  0.6236754602010338  0.9380294439866462  0.2402807658641464
 
  0.00000000E+00  0.00000000E+00  0.00000000E+00
  0.00000000E+00  0.00000000E+00  0.00000000E+00
  0.00000000E+00  0.00000000E+00  0.00000000E+00
  0.00000000E+00  0.00000000E+00  0.00000000E+00
  0.00000000E+00  0.00000000E+00  0.00000000E+00
  0.00000000E+00  0.00000000E+00  0.00000000E+00
  0.00000000E+00  0.00000000E+00  0.00000000E+00
  0.00000000E+00  0.00000000E+00  0.00000000E+00
  0.00000000E+00  0.00000000E+00  0.00000000E+00
  0.00000000E+00  0.00000000E+00  0.00000000E+00
  0.00000000E+00  0.00000000E+00  0.00000000E+00
  0.00000000E+00  0.00000000E+00  0.00000000E+00
  0.00000000E+00  0.00000000E+00  0.00000000E+00
  0.00000000E+00  0.00000000E+00  0.00000000E+00
  0.00000000E+00  0.00000000E+00  0.00000000E+00
  0.00000000E+00  0.00000000E+00  0.00000000E+00
