Fe8 Se8                                 
   1.00000000000000     
     4.7931549186807363   -5.6157823617179012   -0.0000000000000000
     4.7931549186807363    5.6157823617179012    0.0000000000000000
     0.0000000000000000   -0.0000000000000000    5.5354704150152969
   Fe   Se
     8     8
Direct
 -0.0000000000000000 -0.0000000000000000 -0.0000000000000000
 -0.0000000000000000  0.5000000000000000 -0.0000000000000000
  0.5000000000000000 -0.0000000000000000 -0.0000000000000000
  0.5000000000000000  0.5000000000000000 -0.0000000000000000
  0.2500000000000000  0.2500000000000000 -0.0000000000000000
  0.2500000000000000  0.7500000000000000 -0.0000000000000000
  0.7500000000000000  0.2500000000000000 -0.0000000000000000
  0.7500000000000000  0.7500000000000000 -0.0000000000000000
  0.3750000000000000  0.1250000000000000  0.6722382324254093
  0.3750000000000000  0.6250000000000000  0.6722382324254093
  0.8750000000000000  0.1250000000000000  0.6722382324254093
  0.8750000000000000  0.6250000000000000  0.6722382324254093
  0.1250000000000000  0.3750000000000000  0.3277617675745907
  0.1250000000000000  0.8750000000000000  0.3277617675745907
  0.6250000000000000  0.3750000000000000  0.3277617675745907
  0.6250000000000000  0.8750000000000000  0.3277617675745907
 
  0.00000000E+00  0.00000000E+00  0.00000000E+00
  0.00000000E+00  0.00000000E+00  0.00000000E+00
  0.00000000E+00  0.00000000E+00  0.00000000E+00
  0.00000000E+00  0.00000000E+00  0.00000000E+00
  0.00000000E+00  0.00000000E+00  0.00000000E+00
  0.00000000E+00  0.00000000E+00  0.00000000E+00
  0.00000000E+00  0.00000000E+00  0.00000000E+00
  0.00000000E+00  0.00000000E+00  0.00000000E+00
  0.00000000E+00  0.00000000E+00  0.00000000E+00
  0.00000000E+00  0.00000000E+00  0.00000000E+00
  0.00000000E+00  0.00000000E+00  0.00000000E+00
  0.00000000E+00  0.00000000E+00  0.00000000E+00
  0.00000000E+00  0.00000000E+00  0.00000000E+00
  0.00000000E+00  0.00000000E+00  0.00000000E+00
  0.00000000E+00  0.00000000E+00  0.00000000E+00
  0.00000000E+00  0.00000000E+00  0.00000000E+00
