CoNiV                                   
   3.62100000000000     
     1.1711419960270431    0.0000000000000000   -0.0018035859999970
     0.0000000000000000    1.3462365604925468    0.0000000000000000
    -0.0025531411669500    0.0000000000000000    1.6567671279496925
   Co   Ni
     6     6
Direct
  0.8341556249369972  0.2500000000000000  0.3376107747243893
  0.8341556249369972  0.7500000000000000  0.3376107747243893
  0.1650586855921787  0.2500000000000000  0.6642505361170947
  0.1650586855921787  0.7500000000000000  0.6642505361170947
  0.6672533254858735  0.0000000000000000  0.6649184808867901
  0.6672533254858735  0.5000000000000000  0.6649184808867901
  0.5006451563471543  0.2500000000000000  0.9989504555316842
  0.5006451563471543  0.7500000000000000  0.9989504555316842
  0.9997332603231115  0.0000000000000000  0.9988197773795093
  0.9997332603231115  0.5000000000000000  0.9988197773795093
  0.3331539473146847  0.0000000000000000  0.3354499753605324
  0.3331539473146847  0.5000000000000000  0.3354499753605324
 
  0.00000000E+00  0.00000000E+00  0.00000000E+00
  0.00000000E+00  0.00000000E+00  0.00000000E+00
  0.00000000E+00  0.00000000E+00  0.00000000E+00
  0.00000000E+00  0.00000000E+00  0.00000000E+00
  0.00000000E+00  0.00000000E+00  0.00000000E+00
  0.00000000E+00  0.00000000E+00  0.00000000E+00
  0.00000000E+00  0.00000000E+00  0.00000000E+00
  0.00000000E+00  0.00000000E+00  0.00000000E+00
  0.00000000E+00  0.00000000E+00  0.00000000E+00
  0.00000000E+00  0.00000000E+00  0.00000000E+00
  0.00000000E+00  0.00000000E+00  0.00000000E+00
  0.00000000E+00  0.00000000E+00  0.00000000E+00
