Fe9 Pt3                                 
   1.00000000000000     
     3.7415143821063421    0.0000000000000000    0.0000000000000000
     0.0000000000000000    3.7415143821063421    0.0000000000000000
     0.0000000000000000    0.0000000000000000   11.4294450696292724
  Fe              Pt            
     9     3
Direct
  0.0000000000000000  0.5000000000000000  0.1666518111518300
  0.0000000000000000  0.5000000000000000  0.4995704349526875
  0.0000000000000000  0.5000000000000000  0.8337798314307534
  0.5000000000000000  0.5000000000000000  0.0080657986743020
  0.5000000000000000  0.5000000000000000  0.3252991341418152
  0.5000000000000000  0.5000000000000000  0.6666477784921483
  0.5000000000000000  0.0000000000000000  0.1666518111518300
  0.5000000000000000  0.0000000000000000  0.4995704349526875
  0.5000000000000000  0.0000000000000000  0.8337798314307534
  0.0000000000000000  0.0000000000000000  0.9972524405941599
  0.0000000000000000  0.0000000000000000  0.3360844008146415
  0.0000000000000000  0.0000000000000000  0.6666462922123699
 
  0.00000000E+00  0.00000000E+00  0.00000000E+00
  0.00000000E+00  0.00000000E+00  0.00000000E+00
  0.00000000E+00  0.00000000E+00  0.00000000E+00
  0.00000000E+00  0.00000000E+00  0.00000000E+00
  0.00000000E+00  0.00000000E+00  0.00000000E+00
  0.00000000E+00  0.00000000E+00  0.00000000E+00
  0.00000000E+00  0.00000000E+00  0.00000000E+00
  0.00000000E+00  0.00000000E+00  0.00000000E+00
  0.00000000E+00  0.00000000E+00  0.00000000E+00
  0.00000000E+00  0.00000000E+00  0.00000000E+00
  0.00000000E+00  0.00000000E+00  0.00000000E+00
  0.00000000E+00  0.00000000E+00  0.00000000E+00
