ALGO = All
EDIFF = 1e-06
EDIFFG = -0.01
ENCUT = 520
GGA = Pe
IBRION = 2
ISIF = 4
ISMEAR = 1
ISPIN = 2
KPAR = 4
LCHARG = True
LORBIT = 11
LREAL = False
LWAVE = False
MAGMOM = 1*-2.68 1*2.681 1*2.683 1*-2.719 1*-2.715 1*2.858 1*-2.68 1*2.681 1*2.683 1*-0.082 1*-0.081 1*0.245
NELM = 200
NSW = 100
PREC = Accurate
SIGMA = 0.2
