Fe9 Pt3                                 
   1.00000000000000     
     3.5832547895751858    0.0000000164134361    0.0000000019757179
     0.0000000168971327    3.5832546851293658    0.0000000003707328
     0.0000000302456380   -0.0000000245305061   10.8257858741243691
  Fe              Pt            
     9     3
Direct
  0.9999999830644057  0.4999999982340668  0.1666379677935197
  0.0000000303273282  0.4999999891184004  0.4996845323292618
  0.0000000034914009  0.5000000055040559  0.8336775925376045
  0.4999999705183882  0.4999999649365208  0.0014341077012219
  0.5000000318143520  0.5000000335511601  0.3318688871866087
  0.5000000023791529  0.4999999979308853  0.6666975429856379
  0.4999999873076248  0.9999999952050871  0.1666379648098655
  0.5000000088733572  0.0000000103878648  0.4996845408068040
  0.4999999938220441  0.0000000205745252  0.8336775830334489
  0.0000000034916567  0.9999999728078137  0.9979906304826685
  0.9999999881404023  0.0000000156524322  0.3353300344644268
  0.9999999967698869  0.9999999960971806  0.6666786158688609
 
  0.00000000E+00  0.00000000E+00  0.00000000E+00
  0.00000000E+00  0.00000000E+00  0.00000000E+00
  0.00000000E+00  0.00000000E+00  0.00000000E+00
  0.00000000E+00  0.00000000E+00  0.00000000E+00
  0.00000000E+00  0.00000000E+00  0.00000000E+00
  0.00000000E+00  0.00000000E+00  0.00000000E+00
  0.00000000E+00  0.00000000E+00  0.00000000E+00
  0.00000000E+00  0.00000000E+00  0.00000000E+00
  0.00000000E+00  0.00000000E+00  0.00000000E+00
  0.00000000E+00  0.00000000E+00  0.00000000E+00
  0.00000000E+00  0.00000000E+00  0.00000000E+00
  0.00000000E+00  0.00000000E+00  0.00000000E+00
