ALGO = All
EDIFF = 1e-06
EDIFFG = -0.01
ENCUT = 520
GGA = Pe
IBRION = 2
ISIF = 4
ISMEAR = 1
ISPIN = 2
ISYM = 0
KPAR = 4
LCHARG = True
LORBIT = 11
LREAL = False
LWAVE = False
MAGMOM = 1*-2.245 1*2.117 1*2.116 1*-2.227 1*-2.228 1*2.243 1*-2.245 1*2.117 1*2.116 2*-0.081 1*0.168
NELM = 200
NSW = 100
POTIM = 0.25
PREC = Accurate
SIGMA = 0.2
