ALGO = Normal
EDIFF = 1e-06
EDIFFG = -0.01
ENCUT = 520
GGA = Pe
IBRION = -1
ISIF = 4
ISMEAR = -5
ISPIN = 2
ISYM = 0
KPAR = 4
LCHARG = True
LORBIT = 11
LREAL = False
LWAVE = False
MAGMOM = 1*-2.244 1*2.118 1*2.116 1*-2.227 1*-2.228 1*2.242 1*-2.244 1*2.118 1*2.116 2*-0.081 1*0.168
NELM = 200
NSW = 0
POTIM = 0.25
PREC = Accurate
SIGMA = 0.2
