ALGO = All
EDIFF = 1e-06
EDIFFG = -0.01
ENCUT = 520
GGA = Pe
IBRION = 2
ISIF = 4
ISMEAR = 1
ISPIN = 2
ISYM = 0
KPAR = 4
LCHARG = True
LORBIT = 11
LREAL = False
LWAVE = False
MAGMOM = 1*-2.32 1*2.208 1*2.206 2*-2.331 1*2.358 1*-2.32 1*2.208 1*2.206 2*-0.087 1*0.179
NELM = 200
NSW = 100
POTIM = 0.25
PREC = Accurate
SIGMA = 0.2
