Fe8 Se8                                 
   1.00000000000000     
     4.9557641362219771   -5.0186315736306755    1.1388309284553917
     4.6987685219184545    4.8612241894172179    0.9556706109685178
     1.0891586576008252   -0.1418403347140220    6.6357108721106943
   Fe   Se
     8     8
Direct
  0.9578494041269534  0.0002137125893360  0.9996999482565686
  0.0421505958730465  0.4997862874106712  0.0003000517434314
  0.4578494041269534  0.0002137125893360  0.9996999482565686
  0.5421505958730466  0.4997862874106712  0.0003000517434314
  0.2500000000000000  0.2500000000000000  0.0000000000000000
  0.2500000000000000  0.7500000000000000  0.0000000000000000
  0.7500000000000000  0.2500000000000000  0.0000000000000000
  0.7500000000000000  0.7500000000000000  0.0000000000000000
  0.2590281874368629  0.0601676235488211  0.7428795000731184
  0.3791730281999127  0.5598647944491100  0.7434856525683213
  0.7590281874368559  0.0601676235488211  0.7428795000731184
  0.8791730281999198  0.5598647944491100  0.7434856525683213
  0.2409718125631370  0.4398323764511789  0.2571204999268886
  0.1208269718000872  0.9401352055508900  0.2565143474316857
  0.7409718125631441  0.4398323764511789  0.2571204999268886
  0.6208269718000802  0.9401352055508900  0.2565143474316857
 
  0.00000000E+00  0.00000000E+00  0.00000000E+00
  0.00000000E+00  0.00000000E+00  0.00000000E+00
  0.00000000E+00  0.00000000E+00  0.00000000E+00
  0.00000000E+00  0.00000000E+00  0.00000000E+00
  0.00000000E+00  0.00000000E+00  0.00000000E+00
  0.00000000E+00  0.00000000E+00  0.00000000E+00
  0.00000000E+00  0.00000000E+00  0.00000000E+00
  0.00000000E+00  0.00000000E+00  0.00000000E+00
  0.00000000E+00  0.00000000E+00  0.00000000E+00
  0.00000000E+00  0.00000000E+00  0.00000000E+00
  0.00000000E+00  0.00000000E+00  0.00000000E+00
  0.00000000E+00  0.00000000E+00  0.00000000E+00
  0.00000000E+00  0.00000000E+00  0.00000000E+00
  0.00000000E+00  0.00000000E+00  0.00000000E+00
  0.00000000E+00  0.00000000E+00  0.00000000E+00
  0.00000000E+00  0.00000000E+00  0.00000000E+00
