Fe9 Pt3                                 
   1.00000000000000     
     3.8302803509482213    0.0000000000000000    0.0000000000000000
     0.0000000000000000    3.8302803509482213    0.0000000000000000
     0.0000000000000000    0.0000000000000000   11.7237708634061963
  Fe              Pt            
     9     3
Direct
  0.0000000000000000  0.5000000000000000  0.1666998715233845
  0.0000000000000000  0.5000000000000000  0.5002130973871175
  0.0000000000000000  0.5000000000000000  0.8330671775585756
  0.5000000000000000  0.5000000000000000  0.0126767856784795
  0.5000000000000000  0.5000000000000000  0.3207046371095075
  0.5000000000000000  0.5000000000000000  0.6666421925017545
  0.5000000000000000  0.0000000000000000  0.1666998715233845
  0.5000000000000000  0.0000000000000000  0.5002130973871175
  0.5000000000000000  0.0000000000000000  0.8330671775585756
  0.0000000000000000  0.0000000000000000  0.9960212398388322
  0.0000000000000000  0.0000000000000000  0.3372930301718711
  0.0000000000000000  0.0000000000000000  0.6667018217613929
 
  0.00000000E+00  0.00000000E+00  0.00000000E+00
  0.00000000E+00  0.00000000E+00  0.00000000E+00
  0.00000000E+00  0.00000000E+00  0.00000000E+00
  0.00000000E+00  0.00000000E+00  0.00000000E+00
  0.00000000E+00  0.00000000E+00  0.00000000E+00
  0.00000000E+00  0.00000000E+00  0.00000000E+00
  0.00000000E+00  0.00000000E+00  0.00000000E+00
  0.00000000E+00  0.00000000E+00  0.00000000E+00
  0.00000000E+00  0.00000000E+00  0.00000000E+00
  0.00000000E+00  0.00000000E+00  0.00000000E+00
  0.00000000E+00  0.00000000E+00  0.00000000E+00
  0.00000000E+00  0.00000000E+00  0.00000000E+00
