ALGO = Normal
EDIFF = 1e-06
EDIFFG = -0.01
ENCUT = 520
GGA = Pe
IBRION = -1
ISIF = 4
ISMEAR = -5
ISPIN = 2
KPAR = 4
LCHARG = True
LORBIT = 11
LREAL = False
LWAVE = False
MAGMOM = 1*-2.797 2*2.817 1*-2.834 1*-2.833 1*2.941 1*-2.797 2*2.817 2*-0.077 1*0.252
NELM = 200
NSW = 0
PREC = Accurate
SIGMA = 0.2
