ALGO = Fast
EDIFF = 0.0002
ENCUT = 550
IBRION = 2
ISIF = 4
ISMEAR = 0
ISPIN = 2
IVDW = 13
LASPH = True
LMAXMIX = 4
LORBIT = 11
LREAL = Auto
LWAVE = False
MAGMOM = 1*2.371 2*-2.371 2*2.371 2*-2.371 1*2.371 8*0.0
NELM = 100
NSW = 99
PREC = Accurate
SIGMA = 0.05
