Fe8 Se8
1.0
   4.8310500539229402   -5.7519288109466373    0.0000000000000000
   4.8310500539229402    5.7519288109466373    0.0000000000000000
   0.0000000000000000    0.0000000000000000    5.7399174676983105
Fe Se
8 8
direct
   0.0000000000000000    0.0000000000000000    0.0000000000000000 Fe
   0.0000000000000000    0.5000000000000000    0.0000000000000000 Fe
   0.5000000000000000    0.0000000000000000    0.0000000000000000 Fe
   0.5000000000000000    0.5000000000000000    0.0000000000000000 Fe
   0.2500000000000000    0.2500000000000000    0.0000000000000000 Fe
   0.2500000000000000    0.7500000000000000    0.0000000000000000 Fe
   0.7500000000000000    0.2500000000000000    0.0000000000000000 Fe
   0.7500000000000000    0.7500000000000000    0.0000000000000000 Fe
   0.3750000000000000    0.1250000000000000    0.6918887928268589 Se
   0.3750000000000000    0.6250000000000000    0.6918887928268589 Se
   0.8750000000000000    0.1250000000000000    0.6918887928268589 Se
   0.8750000000000000    0.6250000000000000    0.6918887928268589 Se
   0.1250000000000000    0.3750000000000000    0.3081112071731411 Se
   0.1250000000000000    0.8750000000000000    0.3081112071731411 Se
   0.6250000000000000    0.3750000000000000    0.3081112071731411 Se
   0.6250000000000000    0.8750000000000000    0.3081112071731411 Se
