Fe8 Se8
1.0
   4.9072835243795474   -4.9747467134465984    1.1627503719467736
   4.6468718762912671    4.8277152277625550    1.0411384693443677
   1.0599694769003631   -0.0934417682467140    7.0600686731314415
Fe Se
8 8
direct
   0.9579455259542442    0.0001074707711908    0.9997743834193713 Fe
   0.0420544740457558    0.4998925292288163    0.0002256165806287 Fe
   0.4579455259542442    0.0001074707711908    0.9997743834193713 Fe
   0.5420544740457558    0.4998925292288163    0.0002256165806287 Fe
   0.2500000000000000    0.2500000000000000    0.0000000000000000 Fe
   0.2500000000000000    0.7500000000000000    0.0000000000000000 Fe
   0.7500000000000000    0.2500000000000000    0.0000000000000000 Fe
   0.7500000000000000    0.7500000000000000    0.0000000000000000 Fe
   0.2566005862231293    0.0621138674007113    0.7592974432254636 Se
   0.3763245397989579    0.5619705560133568    0.7597192341358578 Se
   0.7566005862231222    0.0621138674007113    0.7592974432254636 Se
   0.8763245397989650    0.5619705560133568    0.7597192341358578 Se
   0.2433994137768707    0.4378861325992887    0.2407025567745436 Se
   0.1236754602010421    0.9380294439866432    0.2402807658641493 Se
   0.7433994137768778    0.4378861325992887    0.2407025567745436 Se
   0.6236754602010350    0.9380294439866432    0.2402807658641493 Se
