CoNiV                                   
   3.69200000000000     
     1.1720628349910800    0.0000000000000000   -0.0021399240389885
     0.0000000000000000    1.3452559707538079    0.0000000000000000
    -0.0030317954842936    0.0000000000000000    1.6566737905205997
   Co   Ni
     6     6
Direct
  0.8345520027824662  0.2500000000000000  0.3385998728996000
  0.8345520027824662  0.7500000000000000  0.3385998728996000
  0.1643493240315905  0.2500000000000000  0.6636184419696605
  0.1643493240315905  0.7500000000000000  0.6636184419696605
  0.6675497033490743  0.0000000000000000  0.6644818412621802
  0.6675497033490743  0.5000000000000000  0.6644818412621802
  0.5007511350500167  0.2500000000000000  0.9985935271228925
  0.5007511350500167  0.7500000000000000  0.9985935271228925
  0.9997200969884830  0.0000000000000000  0.9985662254959635
  0.9997200969884830  0.5000000000000000  0.9985662254959635
  0.3330777377983765  0.0000000000000000  0.3361400912497174
  0.3330777377983765  0.5000000000000000  0.3361400912497174
 
  0.00000000E+00  0.00000000E+00  0.00000000E+00
  0.00000000E+00  0.00000000E+00  0.00000000E+00
  0.00000000E+00  0.00000000E+00  0.00000000E+00
  0.00000000E+00  0.00000000E+00  0.00000000E+00
  0.00000000E+00  0.00000000E+00  0.00000000E+00
  0.00000000E+00  0.00000000E+00  0.00000000E+00
  0.00000000E+00  0.00000000E+00  0.00000000E+00
  0.00000000E+00  0.00000000E+00  0.00000000E+00
  0.00000000E+00  0.00000000E+00  0.00000000E+00
  0.00000000E+00  0.00000000E+00  0.00000000E+00
  0.00000000E+00  0.00000000E+00  0.00000000E+00
  0.00000000E+00  0.00000000E+00  0.00000000E+00
