SYSTEM = metalsystem
EDIFF = 5E-6
ISMEAR = 1
SIGMA = 0.2
IBRION = 2
NSW = 69
ISPIN = 2
VOSKOWN= 1
MAGMOM = 12*3
LCHARG =.FALSE.
LWAVE =.FALSE.
DOPBE
ISIF = 4
NPAR = 16
PREC = Accurate
