Fe8 Se8                                 
   1.00000000000000     
     4.8780977489827899   -5.8327099281529193    0.0000000000000000
     4.8780977489827899    5.8327099281529193   -0.0000000000000000
     0.0000000000000000   -0.0000000000000000    5.8518523607999171
   Fe   Se
     8     8
Direct
 -0.0000000000000000 -0.0000000000000000 -0.0000000000000000
 -0.0000000000000000  0.5000000000000000 -0.0000000000000000
  0.5000000000000000 -0.0000000000000000 -0.0000000000000000
  0.5000000000000000  0.5000000000000000 -0.0000000000000000
  0.2500000000000000  0.2500000000000000 -0.0000000000000000
  0.2500000000000000  0.7500000000000000 -0.0000000000000000
  0.7500000000000000  0.2500000000000000 -0.0000000000000000
  0.7500000000000000  0.7500000000000000 -0.0000000000000000
  0.3750000000000000  0.1250000000000000  0.6971430942173420
  0.3750000000000000  0.6250000000000000  0.6971430942173420
  0.8750000000000000  0.1250000000000000  0.6971430942173420
  0.8750000000000000  0.6250000000000000  0.6971430942173420
  0.1250000000000000  0.3750000000000000  0.3028569057826580
  0.1250000000000000  0.8750000000000000  0.3028569057826580
  0.6250000000000000  0.3750000000000000  0.3028569057826580
  0.6250000000000000  0.8750000000000000  0.3028569057826580
 
  0.00000000E+00  0.00000000E+00  0.00000000E+00
  0.00000000E+00  0.00000000E+00  0.00000000E+00
  0.00000000E+00  0.00000000E+00  0.00000000E+00
  0.00000000E+00  0.00000000E+00  0.00000000E+00
  0.00000000E+00  0.00000000E+00  0.00000000E+00
  0.00000000E+00  0.00000000E+00  0.00000000E+00
  0.00000000E+00  0.00000000E+00  0.00000000E+00
  0.00000000E+00  0.00000000E+00  0.00000000E+00
  0.00000000E+00  0.00000000E+00  0.00000000E+00
  0.00000000E+00  0.00000000E+00  0.00000000E+00
  0.00000000E+00  0.00000000E+00  0.00000000E+00
  0.00000000E+00  0.00000000E+00  0.00000000E+00
  0.00000000E+00  0.00000000E+00  0.00000000E+00
  0.00000000E+00  0.00000000E+00  0.00000000E+00
  0.00000000E+00  0.00000000E+00  0.00000000E+00
  0.00000000E+00  0.00000000E+00  0.00000000E+00
