CoNiV                                   
   3.51450000000000     
     1.1709758851190193    0.0000000000000000   -0.0015261448669984
     0.0000000000000000    1.3472577023106240    0.0000000000000000
    -0.0021618754156479    0.0000000000000000    1.6557451299473886
   Co   Ni
     6     6
Direct
  0.8339168591076387  0.2500000000000000  0.3365631728925464
  0.8339168591076387  0.7500000000000000  0.3365631728925464
  0.1654866151360253  0.2500000000000000  0.6649456021464388
  0.1654866151360253  0.7500000000000000  0.6649456021464388
  0.6668959512912807  0.0000000000000000  0.6653713627558915
  0.6668959512912807  0.5000000000000000  0.6653713627558915
  0.5006200754031624  0.2500000000000000  0.9993555518206563
  0.5006200754031624  0.7500000000000000  0.9993555518206563
  0.9998637560466506  0.0000000000000000  0.9990389659790040
  0.9998637560466506  0.5000000000000000  0.9990389659790040
  0.3332167430152282  0.0000000000000000  0.3347253444054772
  0.3332167430152282  0.5000000000000000  0.3347253444054772
 
  0.00000000E+00  0.00000000E+00  0.00000000E+00
  0.00000000E+00  0.00000000E+00  0.00000000E+00
  0.00000000E+00  0.00000000E+00  0.00000000E+00
  0.00000000E+00  0.00000000E+00  0.00000000E+00
  0.00000000E+00  0.00000000E+00  0.00000000E+00
  0.00000000E+00  0.00000000E+00  0.00000000E+00
  0.00000000E+00  0.00000000E+00  0.00000000E+00
  0.00000000E+00  0.00000000E+00  0.00000000E+00
  0.00000000E+00  0.00000000E+00  0.00000000E+00
  0.00000000E+00  0.00000000E+00  0.00000000E+00
  0.00000000E+00  0.00000000E+00  0.00000000E+00
  0.00000000E+00  0.00000000E+00  0.00000000E+00
