SYSTEM = metalsystem
EDIFF = 5E-6
SIGMA = 0.2
ISPIN = 2
VOSKOWN= 1
MAGMOM = 12*3
LWAVE =.FALSE.
DOPBE
ISIF   = 2
ISMEAR = -5
NSW    = 1
IBRION = -1
PREC   = High
NEDOS  = 2000
NPAR   =  8
LCHARG=.TRUE.
AMIX = 0.2
BMIX = 0.0001
AMIX_MAG = 0.2
BMIX_MAG = 0.0001
