Fe9 Pt3                                 
   1.00000000000000     
     3.6315190217668403    0.0000000000000000    0.0000000000000000
     0.0000000000000000    3.6315190217668403    0.0000000000000000
     0.0000000000000000    0.0000000000000000   10.9949018187136947
  Fe              Pt            
     9     3
Direct
  0.0000000000000000  0.5000000000000000  0.1666624479538186
  0.0000000000000000  0.5000000000000000  0.4995659548807438
  0.0000000000000000  0.5000000000000000  0.8337726083583306
  0.5000000000000000  0.5000000000000000  0.0030949956043500
  0.5000000000000000  0.5000000000000000  0.3302521511735890
  0.5000000000000000  0.5000000000000000  0.6666491720692491
  0.5000000000000000  0.0000000000000000  0.1666624479538186
  0.5000000000000000  0.0000000000000000  0.4995659548807438
  0.5000000000000000  0.0000000000000000  0.8337726083583306
  0.0000000000000000  0.0000000000000000  0.9979097721335108
  0.0000000000000000  0.0000000000000000  0.3354235465615858
  0.0000000000000000  0.0000000000000000  0.6666683400718654
 
  0.00000000E+00  0.00000000E+00  0.00000000E+00
  0.00000000E+00  0.00000000E+00  0.00000000E+00
  0.00000000E+00  0.00000000E+00  0.00000000E+00
  0.00000000E+00  0.00000000E+00  0.00000000E+00
  0.00000000E+00  0.00000000E+00  0.00000000E+00
  0.00000000E+00  0.00000000E+00  0.00000000E+00
  0.00000000E+00  0.00000000E+00  0.00000000E+00
  0.00000000E+00  0.00000000E+00  0.00000000E+00
  0.00000000E+00  0.00000000E+00  0.00000000E+00
  0.00000000E+00  0.00000000E+00  0.00000000E+00
  0.00000000E+00  0.00000000E+00  0.00000000E+00
  0.00000000E+00  0.00000000E+00  0.00000000E+00
