ALGO = Normal
EDIFF = 1e-06
EDIFFG = -0.01
ENCUT = 520
GGA = Pe
IBRION = -1
ISIF = 4
ISMEAR = -5
ISPIN = 2
KPAR = 4
LCHARG = True
LORBIT = 11
LREAL = False
LWAVE = False
MAGMOM = 1*-2.401 2*2.301 1*-2.406 1*-2.407 1*2.473 1*-2.401 2*2.301 2*-0.091 1*0.199
NELM = 200
NSW = 0
PREC = Accurate
SIGMA = 0.2
