ALGO = All
EDIFF = 1e-06
EDIFFG = -0.01
ENCUT = 520
GGA = Pe
IBRION = 2
ISIF = 4
ISMEAR = 1
ISPIN = 2
KPAR = 4
LCHARG = True
LORBIT = 11
LREAL = False
LWAVE = False
MAGMOM = 1*-2.45 1*2.377 1*2.376 2*-2.482 1*2.595 1*-2.45 1*2.377 1*2.376 2*-0.094 1*0.215
NELM = 200
NSW = 100
PREC = Accurate
SIGMA = 0.2
