pymatgen with grid density = 8800 / number of atoms
0
Gamma
13 13 4
