Fe8 Se8                                 
   1.00000000000000     
     4.8958055364483393   -5.8787337082213691    0.0000000000000000
     4.8958055364483393    5.8787337082213691    0.0000000000000000
     0.0000000000000000    0.0000000000000000    5.9066464187036027
   Fe   Se
     8     8
Direct
  0.0000000000000000  0.0000000000000000  0.0000000000000000
  0.0000000000000000  0.5000000000000000  0.0000000000000000
  0.5000000000000000  0.0000000000000000  0.0000000000000000
  0.5000000000000000  0.5000000000000000  0.0000000000000000
  0.2500000000000000  0.2500000000000000  0.0000000000000000
  0.2500000000000000  0.7500000000000000  0.0000000000000000
  0.7500000000000000  0.2500000000000000  0.0000000000000000
  0.7500000000000000  0.7500000000000000  0.0000000000000000
  0.3750000000000000  0.1250000000000000  0.7022240534172539
  0.3750000000000000  0.6250000000000000  0.7022240534172539
  0.8750000000000000  0.1250000000000000  0.7022240534172539
  0.8750000000000000  0.6250000000000000  0.7022240534172539
  0.1250000000000000  0.3750000000000000  0.2977759465827461
  0.1250000000000000  0.8750000000000000  0.2977759465827461
  0.6250000000000000  0.3750000000000000  0.2977759465827461
  0.6250000000000000  0.8750000000000000  0.2977759465827461
 
  0.00000000E+00  0.00000000E+00  0.00000000E+00
  0.00000000E+00  0.00000000E+00  0.00000000E+00
  0.00000000E+00  0.00000000E+00  0.00000000E+00
  0.00000000E+00  0.00000000E+00  0.00000000E+00
  0.00000000E+00  0.00000000E+00  0.00000000E+00
  0.00000000E+00  0.00000000E+00  0.00000000E+00
  0.00000000E+00  0.00000000E+00  0.00000000E+00
  0.00000000E+00  0.00000000E+00  0.00000000E+00
  0.00000000E+00  0.00000000E+00  0.00000000E+00
  0.00000000E+00  0.00000000E+00  0.00000000E+00
  0.00000000E+00  0.00000000E+00  0.00000000E+00
  0.00000000E+00  0.00000000E+00  0.00000000E+00
  0.00000000E+00  0.00000000E+00  0.00000000E+00
  0.00000000E+00  0.00000000E+00  0.00000000E+00
  0.00000000E+00  0.00000000E+00  0.00000000E+00
  0.00000000E+00  0.00000000E+00  0.00000000E+00
