ALGO = Normal
EDIFF = 1e-06
EDIFFG = -0.01
ENCUT = 520
GGA = Pe
IBRION = -1
ISIF = 4
ISMEAR = -5
ISPIN = 2
KPAR = 4
LCHARG = True
LORBIT = 11
LREAL = False
LWAVE = False
MAGMOM = 1*-2.761 1*2.778 1*2.777 2*-2.797 1*2.917 1*-2.761 1*2.778 1*2.777 1*-0.078 1*-0.079 1*0.251
NELM = 200
NSW = 0
PREC = Accurate
SIGMA = 0.2
