Fe8 Se8
1.0
   4.8436745414730122   -5.7915503215741015    0.0000000000000000
   4.8436745414730122    5.7915503215741015    0.0000000000000000
   0.0000000000000000    0.0000000000000000    5.8105576720712211
Fe Se
8 8
direct
   0.0000000000000000    0.0000000000000000    0.0000000000000000 Fe
   0.0000000000000000    0.5000000000000000    0.0000000000000000 Fe
   0.5000000000000000    0.0000000000000000    0.0000000000000000 Fe
   0.5000000000000000    0.5000000000000000    0.0000000000000000 Fe
   0.2500000000000000    0.2500000000000000    0.0000000000000000 Fe
   0.2500000000000000    0.7500000000000000    0.0000000000000000 Fe
   0.7500000000000000    0.2500000000000000    0.0000000000000000 Fe
   0.7500000000000000    0.7500000000000000    0.0000000000000000 Fe
   0.3750000000000000    0.1250000000000000    0.6971430942173384 Se
   0.3750000000000000    0.6250000000000000    0.6971430942173384 Se
   0.8750000000000000    0.1250000000000000    0.6971430942173384 Se
   0.8750000000000000    0.6250000000000000    0.6971430942173384 Se
   0.1250000000000000    0.3750000000000000    0.3028569057826616 Se
   0.1250000000000000    0.8750000000000000    0.3028569057826616 Se
   0.6250000000000000    0.3750000000000000    0.3028569057826616 Se
   0.6250000000000000    0.8750000000000000    0.3028569057826616 Se
