Fe8 Se8                                 
   1.00000000000000     
     4.8302619803445168   -5.7941461582323530   -0.0000000000000000
     4.8302619803445168    5.7941461582323530    0.0000000000000000
     0.0000000000000000   -0.0000000000000000    5.8240818782231010
   Fe   Se
     8     8
Direct
  0.0000000000000000  0.0000000000000000  0.0000000000000000
  0.0000000000000000  0.5000000000000000  0.0000000000000000
  0.5000000000000000  0.0000000000000000  0.0000000000000000
  0.5000000000000000  0.5000000000000000  0.0000000000000000
  0.2500000000000000  0.2500000000000000  0.0000000000000000
  0.2500000000000000  0.7500000000000000  0.0000000000000000
  0.7500000000000000  0.2500000000000000  0.0000000000000000
  0.7500000000000000  0.7500000000000000  0.0000000000000000
  0.3750000000000000  0.1250000000000000  0.6948798402538272
  0.3750000000000000  0.6250000000000000  0.6948798402538272
  0.8750000000000000  0.1250000000000000  0.6948798402538272
  0.8750000000000000  0.6250000000000000  0.6948798402538272
  0.1250000000000000  0.3750000000000000  0.3051201597461728
  0.1250000000000000  0.8750000000000000  0.3051201597461728
  0.6250000000000000  0.3750000000000000  0.3051201597461728
  0.6250000000000000  0.8750000000000000  0.3051201597461728
 
  0.00000000E+00  0.00000000E+00  0.00000000E+00
  0.00000000E+00  0.00000000E+00  0.00000000E+00
  0.00000000E+00  0.00000000E+00  0.00000000E+00
  0.00000000E+00  0.00000000E+00  0.00000000E+00
  0.00000000E+00  0.00000000E+00  0.00000000E+00
  0.00000000E+00  0.00000000E+00  0.00000000E+00
  0.00000000E+00  0.00000000E+00  0.00000000E+00
  0.00000000E+00  0.00000000E+00  0.00000000E+00
  0.00000000E+00  0.00000000E+00  0.00000000E+00
  0.00000000E+00  0.00000000E+00  0.00000000E+00
  0.00000000E+00  0.00000000E+00  0.00000000E+00
  0.00000000E+00  0.00000000E+00  0.00000000E+00
  0.00000000E+00  0.00000000E+00  0.00000000E+00
  0.00000000E+00  0.00000000E+00  0.00000000E+00
  0.00000000E+00  0.00000000E+00  0.00000000E+00
  0.00000000E+00  0.00000000E+00  0.00000000E+00
