EDIFF = 1e-06
EDIFFG = -0.01
ENCUT = 520
GGA = PE
IBRION = 2
ISIF = 4
ISMEAR = 1
LCHARG = False
LREAL = False
LWAVE = False
NELM = 200
NSW = 100
PREC = Accurate
SIGMA = 0.2
