ALGO = Fast
EDIFF = 0.0002
ENCUT = 550
IBRION = -1
ISIF = 4
ISMEAR = -5
ISPIN = 2
IVDW = 13
LASPH = True
LMAXMIX = 4
LORBIT = 11
LREAL = Auto
LWAVE = False
MAGMOM = 1*2.623 2*-2.623 2*2.623 2*-2.623 1*2.623 8*0.0
NELM = 100
NSW = 0
PREC = Accurate
SIGMA = 0.05
