Fe9 Pt3                                 
   1.00000000000000     
     3.6094984167682771    0.0000000000000000    0.0000000000000000
     0.0000000000000000    3.6096136546266364    0.0000000000000000
     0.0000000000000000    0.0000000000000000   10.8988523194154254
  Fe              Pt            
     9     3
Direct
  0.0000000000000000  0.5000000000000000  0.1666603177055137
  0.0000000000000000  0.5000000000000000  0.4987040141244776
  0.0000000000000000  0.5000000000000000  0.8346347198072266
  0.5000000000000000  0.5000000000000000  0.9972777420096222
  0.5000000000000000  0.5000000000000000  0.3360694552605992
  0.5000000000000000  0.5000000000000000  0.6666643420414005
  0.5000000000000000  0.0000000000000000  0.1666602353205917
  0.5000000000000000  0.0000000000000000  0.4986954975551967
  0.5000000000000000  0.0000000000000000  0.8346433015908730
  0.0000000000000000  0.0000000000000000  0.0038327620783960
  0.0000000000000000  0.0000000000000000  0.3294862938881664
  0.0000000000000000  0.0000000000000000  0.6666713186179294
 
  0.00000000E+00  0.00000000E+00  0.00000000E+00
  0.00000000E+00  0.00000000E+00  0.00000000E+00
  0.00000000E+00  0.00000000E+00  0.00000000E+00
  0.00000000E+00  0.00000000E+00  0.00000000E+00
  0.00000000E+00  0.00000000E+00  0.00000000E+00
  0.00000000E+00  0.00000000E+00  0.00000000E+00
  0.00000000E+00  0.00000000E+00  0.00000000E+00
  0.00000000E+00  0.00000000E+00  0.00000000E+00
  0.00000000E+00  0.00000000E+00  0.00000000E+00
  0.00000000E+00  0.00000000E+00  0.00000000E+00
  0.00000000E+00  0.00000000E+00  0.00000000E+00
  0.00000000E+00  0.00000000E+00  0.00000000E+00
