ALGO = Normal
EDIFF = 1e-06
EDIFFG = -0.01
ENCUT = 520
GGA = Pe
IBRION = -1
ISIF = 4
ISMEAR = -5
ISPIN = 2
KPAR = 4
LCHARG = True
LORBIT = 11
LREAL = False
LWAVE = False
MAGMOM = 1*-2.05 2*2.394 2*2.158 1*2.492 1*-2.05 2*2.394 2*0.031 1*0.262
NELM = 200
NSW = 0
PREC = Accurate
SIGMA = 0.2
SYMPREC = 9.999999999999999e-05
