ALGO = All
EDIFF = 1e-06
EDIFFG = -0.01
ENCUT = 520
GGA = Pe
IBRION = 2
ISIF = 4
ISMEAR = 1
ISPIN = 2
KPAR = 4
LCHARG = True
LORBIT = 11
LREAL = False
LWAVE = False
MAGMOM = 1*-2.167 2*2.444 2*2.266 1*2.549 1*-2.167 2*2.444 2*0.032 1*0.266
NELM = 200
NSW = 100
PREC = Accurate
SIGMA = 0.2
SYMPREC = 9.999999999999999e-05
