EDIFF = 1E-6
EDIFFG = -0.01
ENCUT = 520
GGA = Pe
IBRION = -1
ISIF = 4
ISMEAR = -5
LCHARG = False
LORBIT = 11
LREAL = False
LWAVE = False
NEDOS = 10001
NELM = 200
NSW = 0
PREC = Accurate
SIGMA = 0.2
