EDIFF = 1e-06
EDIFFG = -0.01
ENCUT = 620
GGA = Pe
IBRION = -1
ISIF = 2
ISMEAR = -5
LCHARG = False
LREAL = False
LWAVE = False
NELM = 200
NSW = 0
PREC = Accurate
SIGMA = 0.2
