ALGO = Fast
EDIFF = 0.0002
ENCUT = 550
IBRION = 2
ISIF = 4
ISMEAR = 0
ISPIN = 2
IVDW = 13
LASPH = True
LMAXMIX = 4
LORBIT = 11
LREAL = Auto
LWAVE = False
MAGMOM = 1*-0.004 2*0.004 1*-0.004 1*0.012 1*-0.005 1*-0.012 1*0.005 1*-0.003 2*0.003 2*-0.003 2*0.003 1*-0.003
NELM = 100
NSW = 99
PREC = Accurate
SIGMA = 0.05
