Fe9 Pt3                                 
   1.00000000000000     
     3.6769393116623217    0.0000000000000000    0.0000000000000000
     0.0000000000000000    3.6769393116623217    0.0000000000000000
     0.0000000000000000    0.0000000000000000   11.1687359522428622
  Fe              Pt            
     9     3
Direct
  0.0000000000000000  0.5000000000000000  0.1666461059027498
  0.0000000000000000  0.5000000000000000  0.4993512256287715
  0.0000000000000000  0.5000000000000000  0.8339991929777781
  0.5000000000000000  0.5000000000000000  0.0050723617834194
  0.5000000000000000  0.5000000000000000  0.3282311477474451
  0.5000000000000000  0.5000000000000000  0.6666995558688313
  0.5000000000000000  0.0000000000000000  0.1666461059027498
  0.5000000000000000  0.0000000000000000  0.4993512256287715
  0.5000000000000000  0.0000000000000000  0.8339991929777781
  0.0000000000000000  0.0000000000000000  0.9978029564588837
  0.0000000000000000  0.0000000000000000  0.3355142780322566
  0.0000000000000000  0.0000000000000000  0.6666866510905365
 
  0.00000000E+00  0.00000000E+00  0.00000000E+00
  0.00000000E+00  0.00000000E+00  0.00000000E+00
  0.00000000E+00  0.00000000E+00  0.00000000E+00
  0.00000000E+00  0.00000000E+00  0.00000000E+00
  0.00000000E+00  0.00000000E+00  0.00000000E+00
  0.00000000E+00  0.00000000E+00  0.00000000E+00
  0.00000000E+00  0.00000000E+00  0.00000000E+00
  0.00000000E+00  0.00000000E+00  0.00000000E+00
  0.00000000E+00  0.00000000E+00  0.00000000E+00
  0.00000000E+00  0.00000000E+00  0.00000000E+00
  0.00000000E+00  0.00000000E+00  0.00000000E+00
  0.00000000E+00  0.00000000E+00  0.00000000E+00
