ALGO = All
EDIFF = 1e-06
EDIFFG = -0.01
ENCUT = 520
GGA = Pe
IBRION = 2
ISIF = 4
ISMEAR = 1
ISPIN = 2
KPAR = 4
LCHARG = True
LORBIT = 11
LREAL = False
LWAVE = False
MAGMOM = 1*-2.507 1*2.457 1*2.456 1*-2.531 1*-2.532 1*2.659 1*-2.507 1*2.457 1*2.456 2*-0.091 1*0.226
NELM = 200
NSW = 100
PREC = Accurate
SIGMA = 0.2
