Fe9 Pt3                                 
   1.00000000000000     
     3.8902538592723230    0.0000000000000000    0.0000000000000000
     0.0000000000000000    3.6439904564681944    0.0000000000000000
     0.0000000000000000    0.0000000000000000   11.4982681161195490
  Fe              Pt            
     9     3
Direct
  0.0000000000000000  0.5000000000000000  0.1666591841717704
  0.0000000000000000  0.5000000000000000  0.4992413341105362
  0.0000000000000000  0.5000000000000000  0.8340965893260304
  0.5000000000000000  0.5000000000000000  0.0034633039833878
  0.5000000000000000  0.5000000000000000  0.3298868041591660
  0.5000000000000000  0.5000000000000000  0.6666535121851567
  0.5000000000000000  0.0000000000000000  0.1666561514491605
  0.5000000000000000  0.0000000000000000  0.4977236781623162
  0.5000000000000000  0.0000000000000000  0.8356177467694366
  0.0000000000000000  0.0000000000000000  0.0056926352677209
  0.0000000000000000  0.0000000000000000  0.3276484499122532
  0.0000000000000000  0.0000000000000000  0.6666606105030795
 
  0.00000000E+00  0.00000000E+00  0.00000000E+00
  0.00000000E+00  0.00000000E+00  0.00000000E+00
  0.00000000E+00  0.00000000E+00  0.00000000E+00
  0.00000000E+00  0.00000000E+00  0.00000000E+00
  0.00000000E+00  0.00000000E+00  0.00000000E+00
  0.00000000E+00  0.00000000E+00  0.00000000E+00
  0.00000000E+00  0.00000000E+00  0.00000000E+00
  0.00000000E+00  0.00000000E+00  0.00000000E+00
  0.00000000E+00  0.00000000E+00  0.00000000E+00
  0.00000000E+00  0.00000000E+00  0.00000000E+00
  0.00000000E+00  0.00000000E+00  0.00000000E+00
  0.00000000E+00  0.00000000E+00  0.00000000E+00
