ALGO = Normal
EDIFF = 1e-06
EDIFFG = -0.01
ENCUT = 520
GGA = Pe
IBRION = -1
ISIF = 4
ISMEAR = -5
ISPIN = 2
KPAR = 4
LCHARG = True
LORBIT = 11
LREAL = False
LWAVE = False
MAGMOM = 1*-2.651 2*2.892 1*2.694 1*2.695 1*2.855 1*2.491 1*2.768 1*2.769 2*0.129 1*0.309
NELM = 200
NSW = 0
PREC = Accurate
SIGMA = 0.2
