ALGO = All
EDIFF = 1e-06
EDIFFG = -0.01
ENCUT = 520
GGA = Pe
IBRION = 2
ISIF = 4
ISMEAR = 1
ISPIN = 2
KPAR = 4
LCHARG = True
LORBIT = 11
LREAL = False
LWAVE = False
MAGMOM = 1*-2.705 1*2.922 1*2.923 1*2.719 1*2.72 1*2.879 1*2.519 2*2.796 1*0.129 1*0.13 1*0.307
NELM = 200
NSW = 100
PREC = Accurate
SIGMA = 0.2
