ALGO = All
EDIFF = 1e-06
EDIFFG = -0.01
ENCUT = 520
GGA = Pe
IBRION = 2
ISIF = 4
ISMEAR = 1
ISPIN = 2
KPAR = 4
LCHARG = True
LORBIT = 11
LREAL = False
LWAVE = False
MAGMOM = 1*-2.651 2*2.892 2*2.695 1*2.854 1*2.491 2*2.769 2*0.13 1*0.309
NELM = 200
NSW = 100
PREC = Accurate
SIGMA = 0.2
