EDIFF = 1E-6
EDIFFG = -0.01
ENCUT = 520
GGA = Pe
IBRION = 6
ISIF = 0
ISMEAR = 1
ISYM = 2
LCHARG = False
LREAL = False
LWAVE = False
NCORE = 1
NELM = 200
NSW = 1
POTIM = 0.015
PREC = Accurate
SIGMA = 0.2
