Fe8 Se8                                 
   1.00000000000000     
     4.7962795125077227   -5.6168726822534625    0.0000000000000000
     4.7962795125077227    5.6168726822534625    0.0000000000000000
     0.0000000000000000   -0.0000000000000000    5.5307904472998448
   Fe   Se
     8     8
Direct
  0.0000000000000000  0.0000000000000000 -0.0000000000000000
  0.0000000000000000  0.5000000000000000 -0.0000000000000000
  0.5000000000000000  0.0000000000000000 -0.0000000000000000
  0.5000000000000000  0.5000000000000000 -0.0000000000000000
  0.2500000000000000  0.2500000000000000 -0.0000000000000000
  0.2500000000000000  0.7500000000000000 -0.0000000000000000
  0.7500000000000000  0.2500000000000000 -0.0000000000000000
  0.7500000000000000  0.7500000000000000 -0.0000000000000000
  0.3750000000000000  0.1250000000000000  0.6724095810067766
  0.3750000000000000  0.6250000000000000  0.6724095810067766
  0.8750000000000000  0.1250000000000000  0.6724095810067766
  0.8750000000000000  0.6250000000000000  0.6724095810067766
  0.1250000000000000  0.3750000000000000  0.3275904189932234
  0.1250000000000000  0.8750000000000000  0.3275904189932234
  0.6250000000000000  0.3750000000000000  0.3275904189932234
  0.6250000000000000  0.8750000000000000  0.3275904189932234
 
  0.00000000E+00  0.00000000E+00  0.00000000E+00
  0.00000000E+00  0.00000000E+00  0.00000000E+00
  0.00000000E+00  0.00000000E+00  0.00000000E+00
  0.00000000E+00  0.00000000E+00  0.00000000E+00
  0.00000000E+00  0.00000000E+00  0.00000000E+00
  0.00000000E+00  0.00000000E+00  0.00000000E+00
  0.00000000E+00  0.00000000E+00  0.00000000E+00
  0.00000000E+00  0.00000000E+00  0.00000000E+00
  0.00000000E+00  0.00000000E+00  0.00000000E+00
  0.00000000E+00  0.00000000E+00  0.00000000E+00
  0.00000000E+00  0.00000000E+00  0.00000000E+00
  0.00000000E+00  0.00000000E+00  0.00000000E+00
  0.00000000E+00  0.00000000E+00  0.00000000E+00
  0.00000000E+00  0.00000000E+00  0.00000000E+00
  0.00000000E+00  0.00000000E+00  0.00000000E+00
  0.00000000E+00  0.00000000E+00  0.00000000E+00
