Fe8 Se8
1.0
   4.7735057143371886   -5.6404655239781460    0.0000000000000000
   4.7735057143371886    5.6404655239781460    0.0000000000000000
   0.0000000000000000    0.0000000000000000    5.5339326915483920
Fe Se
8 8
direct
   0.0000000000000000    0.0000000000000000    0.0000000000000000 Fe
   0.0000000000000000    0.5000000000000000    0.0000000000000000 Fe
   0.5000000000000000    0.0000000000000000    0.0000000000000000 Fe
   0.5000000000000000    0.5000000000000000    0.0000000000000000 Fe
   0.2500000000000000    0.2500000000000000    0.0000000000000000 Fe
   0.2500000000000000    0.7500000000000000    0.0000000000000000 Fe
   0.7500000000000000    0.2500000000000000    0.0000000000000000 Fe
   0.7500000000000000    0.7500000000000000    0.0000000000000000 Fe
   0.3750000000000000    0.1250000000000000    0.6770887262372085 Se
   0.3750000000000000    0.6250000000000000    0.6770887262372085 Se
   0.8750000000000000    0.1250000000000000    0.6770887262372085 Se
   0.8750000000000000    0.6250000000000000    0.6770887262372085 Se
   0.1250000000000000    0.3750000000000000    0.3229112737627915 Se
   0.1250000000000000    0.8750000000000000    0.3229112737627915 Se
   0.6250000000000000    0.3750000000000000    0.3229112737627915 Se
   0.6250000000000000    0.8750000000000000    0.3229112737627915 Se
