Fe8 Se8                                 
   1.00000000000000     
     4.9487393826128452   -5.0108674741074815    1.1262587662874910
     4.7022993420767003    4.8613909400668662    0.9346281264438620
     1.0963741938756193   -0.1486155321386682    6.4938025101651373
   Fe   Se
     8     8
Direct
  0.9580567604353128  0.0002127394493110  0.9996251708415778
  0.0419432395646871  0.4997872605506961  0.0003748291584222
  0.4580567604353129  0.0002127394493110  0.9996251708415778
  0.5419432395646872  0.4997872605506961  0.0003748291584222
  0.2500000000000000  0.2500000000000000  0.0000000000000000
  0.2500000000000000  0.7500000000000000  0.0000000000000000
  0.7500000000000000  0.2500000000000000  0.0000000000000000
  0.7500000000000000  0.7500000000000000  0.0000000000000000
  0.2601222931852631  0.0596899336315944  0.7376611478080290
  0.3793733595182233  0.5594058383983701  0.7382799691729145
  0.7601222931852560  0.0596899336315944  0.7376611478080290
  0.8793733595182303  0.5594058383983701  0.7382799691729145
  0.2398777068147369  0.4403100663684056  0.2623388521919781
  0.1206266404817767  0.9405941616016299  0.2617200308270925
  0.7398777068147440  0.4403100663684056  0.2623388521919781
  0.6206266404817697  0.9405941616016299  0.2617200308270925
 
  0.00000000E+00  0.00000000E+00  0.00000000E+00
  0.00000000E+00  0.00000000E+00  0.00000000E+00
  0.00000000E+00  0.00000000E+00  0.00000000E+00
  0.00000000E+00  0.00000000E+00  0.00000000E+00
  0.00000000E+00  0.00000000E+00  0.00000000E+00
  0.00000000E+00  0.00000000E+00  0.00000000E+00
  0.00000000E+00  0.00000000E+00  0.00000000E+00
  0.00000000E+00  0.00000000E+00  0.00000000E+00
  0.00000000E+00  0.00000000E+00  0.00000000E+00
  0.00000000E+00  0.00000000E+00  0.00000000E+00
  0.00000000E+00  0.00000000E+00  0.00000000E+00
  0.00000000E+00  0.00000000E+00  0.00000000E+00
  0.00000000E+00  0.00000000E+00  0.00000000E+00
  0.00000000E+00  0.00000000E+00  0.00000000E+00
  0.00000000E+00  0.00000000E+00  0.00000000E+00
  0.00000000E+00  0.00000000E+00  0.00000000E+00
