pymatgen with grid density = 1000 / number of atoms
0
Gamma
6 6 6
