pymatgen with grid density = 2000 / number of atoms
0
Gamma
7 7 7
