pymatgen with grid density = 6000 / number of atoms
0
Gamma
11 11 11
