pymatgen with grid density = 8000 / number of atoms
0
Gamma
12 12 12
