pymatgen with grid density = 5000 / number of atoms
0
Gamma
10 10 10
