pymatgen with grid density = 7000 / number of atoms
0
Gamma
12 12 12
