Fe8 Se8                                 
   1.00000000000000     
     4.9522126281241645   -5.0171341676717462    1.1481678317249557
     4.6953620416460575    4.8630325774347156    0.9780329020329210
     1.0770518260949757   -0.1306709110083392    6.7877865338186867
   Fe   Se
     8     8
Direct
  0.9574469636879120  0.0002484486794263  0.9996539860602007
  0.0425530363120880  0.4997515513205809  0.0003460139397992
  0.4574469636879121  0.0002484486794263  0.9996539860602007
  0.5425530363120880  0.4997515513205809  0.0003460139397992
  0.2500000000000000  0.2500000000000000  0.0000000000000000
  0.2500000000000000  0.7500000000000000  0.0000000000000000
  0.7500000000000000  0.2500000000000000  0.0000000000000000
  0.7500000000000000  0.7500000000000000  0.0000000000000000
  0.2579560162876943  0.0601558578454131  0.7485387597026718
  0.3782457253217181  0.5599008039974963  0.7491581314829129
  0.7579560162876874  0.0601558578454131  0.7485387597026718
  0.8782457253217253  0.5599008039974963  0.7491581314829129
  0.2420439837123056  0.4398441421545869  0.2514612402973352
  0.1217542746782820  0.9400991960025037  0.2508418685170942
  0.7420439837123126  0.4398441421545869  0.2514612402973352
  0.6217542746782747  0.9400991960025037  0.2508418685170942
 
  0.00000000E+00  0.00000000E+00  0.00000000E+00
  0.00000000E+00  0.00000000E+00  0.00000000E+00
  0.00000000E+00  0.00000000E+00  0.00000000E+00
  0.00000000E+00  0.00000000E+00  0.00000000E+00
  0.00000000E+00  0.00000000E+00  0.00000000E+00
  0.00000000E+00  0.00000000E+00  0.00000000E+00
  0.00000000E+00  0.00000000E+00  0.00000000E+00
  0.00000000E+00  0.00000000E+00  0.00000000E+00
  0.00000000E+00  0.00000000E+00  0.00000000E+00
  0.00000000E+00  0.00000000E+00  0.00000000E+00
  0.00000000E+00  0.00000000E+00  0.00000000E+00
  0.00000000E+00  0.00000000E+00  0.00000000E+00
  0.00000000E+00  0.00000000E+00  0.00000000E+00
  0.00000000E+00  0.00000000E+00  0.00000000E+00
  0.00000000E+00  0.00000000E+00  0.00000000E+00
  0.00000000E+00  0.00000000E+00  0.00000000E+00
