Fe8 Se8                                 
   1.00000000000000     
     4.9522126281241645   -5.0171341676717462    1.1481678317249557
     4.6953620416460575    4.8630325774347156    0.9780329020329210
     1.0770518260949757   -0.1306709110083392    6.7877865338186867
   Fe   Se
     8     8
Direct
  0.9574469636879144  0.0002484486794287  0.9996539860602027
  0.0425530363120856  0.4997515513205784  0.0003460139397973
  0.4574469636879144  0.0002484486794287  0.9996539860602027
  0.5425530363120856  0.4997515513205784  0.0003460139397973
  0.2500000000000000  0.2500000000000000  0.0000000000000000
  0.2500000000000000  0.7500000000000000  0.0000000000000000
  0.7500000000000000  0.2500000000000000  0.0000000000000000
  0.7500000000000000  0.7500000000000000  0.0000000000000000
  0.2579560162876930  0.0601558578454160  0.7485387597026687
  0.3782457253217189  0.5599008039974933  0.7491581314829148
  0.7579560162876859  0.0601558578454160  0.7485387597026687
  0.8782457253217260  0.5599008039974933  0.7491581314829148
  0.2420439837123070  0.4398441421545840  0.2514612402973384
  0.1217542746782811  0.9400991960025067  0.2508418685170923
  0.7420439837123141  0.4398441421545840  0.2514612402973384
  0.6217542746782740  0.9400991960025067  0.2508418685170923
 
  0.00000000E+00  0.00000000E+00  0.00000000E+00
  0.00000000E+00  0.00000000E+00  0.00000000E+00
  0.00000000E+00  0.00000000E+00  0.00000000E+00
  0.00000000E+00  0.00000000E+00  0.00000000E+00
  0.00000000E+00  0.00000000E+00  0.00000000E+00
  0.00000000E+00  0.00000000E+00  0.00000000E+00
  0.00000000E+00  0.00000000E+00  0.00000000E+00
  0.00000000E+00  0.00000000E+00  0.00000000E+00
  0.00000000E+00  0.00000000E+00  0.00000000E+00
  0.00000000E+00  0.00000000E+00  0.00000000E+00
  0.00000000E+00  0.00000000E+00  0.00000000E+00
  0.00000000E+00  0.00000000E+00  0.00000000E+00
  0.00000000E+00  0.00000000E+00  0.00000000E+00
  0.00000000E+00  0.00000000E+00  0.00000000E+00
  0.00000000E+00  0.00000000E+00  0.00000000E+00
  0.00000000E+00  0.00000000E+00  0.00000000E+00
