Fe9 Pt3                                 
   1.00000000000000     
     3.8540290354956510    0.0000000000000000    0.0000000000000000
     0.0000000000000000    3.6439714822409877    0.0000000000000000
     0.0000000000000000    0.0000000000000000   11.3927883915322532
  Fe              Pt            
     9     3
Direct
  0.0000000000000000  0.5000000000000000  0.1666692654462025
  0.0000000000000000  0.5000000000000000  0.4993209150732696
  0.0000000000000000  0.5000000000000000  0.8340080712022981
  0.5000000000000000  0.5000000000000000  0.0031937948404774
  0.5000000000000000  0.5000000000000000  0.3301415165986583
  0.5000000000000000  0.5000000000000000  0.6666666369237788
  0.5000000000000000  0.0000000000000000  0.1666653477292783
  0.5000000000000000  0.0000000000000000  0.4977765467053388
  0.5000000000000000  0.0000000000000000  0.8355552238872548
  0.0000000000000000  0.0000000000000000  0.0055221931842411
  0.0000000000000000  0.0000000000000000  0.3278164949398956
  0.0000000000000000  0.0000000000000000  0.6666639934693208
 
  0.00000000E+00  0.00000000E+00  0.00000000E+00
  0.00000000E+00  0.00000000E+00  0.00000000E+00
  0.00000000E+00  0.00000000E+00  0.00000000E+00
  0.00000000E+00  0.00000000E+00  0.00000000E+00
  0.00000000E+00  0.00000000E+00  0.00000000E+00
  0.00000000E+00  0.00000000E+00  0.00000000E+00
  0.00000000E+00  0.00000000E+00  0.00000000E+00
  0.00000000E+00  0.00000000E+00  0.00000000E+00
  0.00000000E+00  0.00000000E+00  0.00000000E+00
  0.00000000E+00  0.00000000E+00  0.00000000E+00
  0.00000000E+00  0.00000000E+00  0.00000000E+00
  0.00000000E+00  0.00000000E+00  0.00000000E+00
