ALGO = All
EDIFF = 1e-06
EDIFFG = -0.01
ENCUT = 520
GGA = Pe
IBRION = 2
ISIF = 4
ISMEAR = 1
ISPIN = 2
KPAR = 4
LCHARG = True
LORBIT = 11
LREAL = False
LWAVE = False
MAGMOM = 1*-2.591 1*2.86 1*2.859 2*2.656 1*2.827 1*2.463 2*2.747 2*0.134 1*0.311
NELM = 200
NSW = 100
PREC = Accurate
SIGMA = 0.2
