ALGO = All
EDIFF = 1e-06
EDIFFG = -0.01
ENCUT = 520
GGA = Pe
IBRION = 2
ISIF = 4
ISMEAR = 1
ISPIN = 2
KPAR = 4
LCHARG = True
LORBIT = 11
LREAL = False
LWAVE = False
MAGMOM = 1*-2.66 2*2.896 1*2.687 1*2.688 1*2.858 1*2.485 2*2.771 2*0.13 1*0.31
NELM = 200
NSW = 100
PREC = Accurate
SIGMA = 0.2
