Fe9 Pt3                                 
   1.00000000000000     
     3.8215601470197909    0.0000000000000000    0.0000000000000000
     0.0000000000000000    3.6346716409317898    0.0000000000000000
     0.0000000000000000    0.0000000000000000   11.3030011208412056
  Fe              Pt            
     9     3
Direct
  0.0000000000000000  0.5000000000000000  0.1666491568012560
  0.0000000000000000  0.5000000000000000  0.4993115584618693
  0.0000000000000000  0.5000000000000000  0.8340611756702501
  0.5000000000000000  0.5000000000000000  0.0032615880256088
  0.5000000000000000  0.5000000000000000  0.3299956849715429
  0.5000000000000000  0.5000000000000000  0.6667314104728987
  0.5000000000000000  0.0000000000000000  0.1666401898740730
  0.5000000000000000  0.0000000000000000  0.4977519585912233
  0.5000000000000000  0.0000000000000000  0.8356115106274942
  0.0000000000000000  0.0000000000000000  0.0054171598830308
  0.0000000000000000  0.0000000000000000  0.3278786968348868
  0.0000000000000000  0.0000000000000000  0.6666899097858732
 
  0.00000000E+00  0.00000000E+00  0.00000000E+00
  0.00000000E+00  0.00000000E+00  0.00000000E+00
  0.00000000E+00  0.00000000E+00  0.00000000E+00
  0.00000000E+00  0.00000000E+00  0.00000000E+00
  0.00000000E+00  0.00000000E+00  0.00000000E+00
  0.00000000E+00  0.00000000E+00  0.00000000E+00
  0.00000000E+00  0.00000000E+00  0.00000000E+00
  0.00000000E+00  0.00000000E+00  0.00000000E+00
  0.00000000E+00  0.00000000E+00  0.00000000E+00
  0.00000000E+00  0.00000000E+00  0.00000000E+00
  0.00000000E+00  0.00000000E+00  0.00000000E+00
  0.00000000E+00  0.00000000E+00  0.00000000E+00
