ALGO = Normal
EDIFF = 1e-06
EDIFFG = -0.01
ENCUT = 520
GGA = Pe
IBRION = -1
ISIF = 4
ISMEAR = -5
ISPIN = 2
KPAR = 4
LCHARG = True
LORBIT = 11
LREAL = False
LWAVE = False
MAGMOM = 1*-2.528 1*2.824 1*2.823 2*2.616 1*2.796 1*2.435 1*2.722 1*2.721 1*0.136 1*0.137 1*0.312
NELM = 200
NSW = 0
PREC = Accurate
SIGMA = 0.2
