ALGO = All
EDIFF = 1e-06
EDIFFG = -0.01
ENCUT = 520
GGA = Pe
IBRION = 2
ISIF = 4
ISMEAR = 1
ISPIN = 2
KPAR = 4
LCHARG = True
LORBIT = 11
LREAL = False
LWAVE = False
MAGMOM = 1*-2.527 1*2.825 1*2.824 1*2.615 1*2.617 1*2.797 1*2.433 1*2.723 1*2.721 2*0.137 1*0.312
NELM = 200
NSW = 100
PREC = Accurate
SIGMA = 0.2
