ALGO = All
EDIFF = 1e-06
EDIFFG = -0.01
ENCUT = 520
GGA = Pe
IBRION = 2
ISIF = 4
ISMEAR = 1
ISPIN = 2
KPAR = 4
LCHARG = True
LORBIT = 11
LREAL = False
LWAVE = False
MAGMOM = 1*-2.606 2*2.862 2*2.647 1*2.829 1*2.463 2*2.747 2*0.132 1*0.311
NELM = 200
NSW = 100
PREC = Accurate
SIGMA = 0.2
