Fe9 Pt3                                 
   1.00000000000000     
     3.6351153418492554    0.0000000000000000    0.0000000000000000
     0.0000000000000000    3.6351667040831983    0.0000000000000000
     0.0000000000000000    0.0000000000000000   10.9730024169967919
  Fe              Pt            
     9     3
Direct
  0.0000000000000000  0.5000000000000000  0.1666603177055137
  0.0000000000000000  0.5000000000000000  0.4990190416447646
  0.0000000000000000  0.5000000000000000  0.8343196922869467
  0.5000000000000000  0.5000000000000000  0.9960789954498779
  0.5000000000000000  0.5000000000000000  0.3372682018203434
  0.5000000000000000  0.5000000000000000  0.6666643420414005
  0.5000000000000000  0.0000000000000000  0.1666602353205917
  0.5000000000000000  0.0000000000000000  0.4990105250754837
  0.5000000000000000  0.0000000000000000  0.8343282740705860
  0.0000000000000000  0.0000000000000000  0.0040569941697584
  0.0000000000000000  0.0000000000000000  0.3292620617968041
  0.0000000000000000  0.0000000000000000  0.6666713186179294
 
  0.00000000E+00  0.00000000E+00  0.00000000E+00
  0.00000000E+00  0.00000000E+00  0.00000000E+00
  0.00000000E+00  0.00000000E+00  0.00000000E+00
  0.00000000E+00  0.00000000E+00  0.00000000E+00
  0.00000000E+00  0.00000000E+00  0.00000000E+00
  0.00000000E+00  0.00000000E+00  0.00000000E+00
  0.00000000E+00  0.00000000E+00  0.00000000E+00
  0.00000000E+00  0.00000000E+00  0.00000000E+00
  0.00000000E+00  0.00000000E+00  0.00000000E+00
  0.00000000E+00  0.00000000E+00  0.00000000E+00
  0.00000000E+00  0.00000000E+00  0.00000000E+00
  0.00000000E+00  0.00000000E+00  0.00000000E+00
