Fe8 Se8                                 
   1.00000000000000     
     4.9487393826128452   -5.0108674741074815    1.1262587662874910
     4.7022993420767003    4.8613909400668662    0.9346281264438620
     1.0963741938756193   -0.1486155321386682    6.4938025101651373
   Fe   Se
     8     8
Direct
  0.9580567604353121  0.0002127394493101  0.9996251708415755
  0.0419432395646879  0.4997872605506970  0.0003748291584245
  0.4580567604353121  0.0002127394493101  0.9996251708415755
  0.5419432395646879  0.4997872605506970  0.0003748291584245
  0.2500000000000000  0.2500000000000000  0.0000000000000000
  0.2500000000000000  0.7500000000000000  0.0000000000000000
  0.7500000000000000  0.2500000000000000  0.0000000000000000
  0.7500000000000000  0.7500000000000000  0.0000000000000000
  0.2601222931852618  0.0596899336315957  0.7376611478080264
  0.3793733595182260  0.5594058383983693  0.7382799691729147
  0.7601222931852547  0.0596899336315957  0.7376611478080264
  0.8793733595182331  0.5594058383983693  0.7382799691729147
  0.2398777068147382  0.4403100663684043  0.2623388521919807
  0.1206266404817740  0.9405941616016307  0.2617200308270924
  0.7398777068147453  0.4403100663684043  0.2623388521919807
  0.6206266404817669  0.9405941616016307  0.2617200308270924
 
  0.00000000E+00  0.00000000E+00  0.00000000E+00
  0.00000000E+00  0.00000000E+00  0.00000000E+00
  0.00000000E+00  0.00000000E+00  0.00000000E+00
  0.00000000E+00  0.00000000E+00  0.00000000E+00
  0.00000000E+00  0.00000000E+00  0.00000000E+00
  0.00000000E+00  0.00000000E+00  0.00000000E+00
  0.00000000E+00  0.00000000E+00  0.00000000E+00
  0.00000000E+00  0.00000000E+00  0.00000000E+00
  0.00000000E+00  0.00000000E+00  0.00000000E+00
  0.00000000E+00  0.00000000E+00  0.00000000E+00
  0.00000000E+00  0.00000000E+00  0.00000000E+00
  0.00000000E+00  0.00000000E+00  0.00000000E+00
  0.00000000E+00  0.00000000E+00  0.00000000E+00
  0.00000000E+00  0.00000000E+00  0.00000000E+00
  0.00000000E+00  0.00000000E+00  0.00000000E+00
  0.00000000E+00  0.00000000E+00  0.00000000E+00
