Fe8 Se8                                 
   1.00000000000000     
     4.9365295743127247   -5.0013767508716969    1.1299068437232491
     4.6879027274610543    4.8510242182187788    0.9447841593054839
     1.0959023164652779   -0.1436714496472800    6.5257512231250114
   Fe   Se
     8     8
Direct
  0.9579139270980185  0.0002075204444349  0.9996706982119513
  0.0420860729019816  0.4997924795555722  0.0003293017880487
  0.4579139270980184  0.0002075204444349  0.9996706982119513
  0.5420860729019815  0.4997924795555722  0.0003293017880487
  0.2500000000000000  0.2500000000000000  0.0000000000000000
  0.2500000000000000  0.7500000000000000  0.0000000000000000
  0.7500000000000000  0.2500000000000000  0.0000000000000000
  0.7500000000000000  0.7500000000000000  0.0000000000000000
  0.2600292971025835  0.0602719999011589  0.7390004674964138
  0.3795517604067407  0.5599154432509157  0.7395444680257985
  0.7600292971025765  0.0602719999011589  0.7390004674964138
  0.8795517604067477  0.5599154432509157  0.7395444680257985
  0.2399707028974165  0.4397280000988412  0.2609995325035933
  0.1204482395932594  0.9400845567490843  0.2604555319742085
  0.7399707028974235  0.4397280000988412  0.2609995325035933
  0.6204482395932523  0.9400845567490843  0.2604555319742085
 
  0.00000000E+00  0.00000000E+00  0.00000000E+00
  0.00000000E+00  0.00000000E+00  0.00000000E+00
  0.00000000E+00  0.00000000E+00  0.00000000E+00
  0.00000000E+00  0.00000000E+00  0.00000000E+00
  0.00000000E+00  0.00000000E+00  0.00000000E+00
  0.00000000E+00  0.00000000E+00  0.00000000E+00
  0.00000000E+00  0.00000000E+00  0.00000000E+00
  0.00000000E+00  0.00000000E+00  0.00000000E+00
  0.00000000E+00  0.00000000E+00  0.00000000E+00
  0.00000000E+00  0.00000000E+00  0.00000000E+00
  0.00000000E+00  0.00000000E+00  0.00000000E+00
  0.00000000E+00  0.00000000E+00  0.00000000E+00
  0.00000000E+00  0.00000000E+00  0.00000000E+00
  0.00000000E+00  0.00000000E+00  0.00000000E+00
  0.00000000E+00  0.00000000E+00  0.00000000E+00
  0.00000000E+00  0.00000000E+00  0.00000000E+00
