Fe8 Se8                                 
   1.00000000000000     
     4.7974548590754935   -5.7423225612396855    0.0000000000000000
     4.7974548590754935    5.7423225612396855    0.0000000000000000
     0.0000000000000000   -0.0000000000000000    5.6627334184928770
   Fe   Se
     8     8
Direct
 -0.0000000000000000 -0.0000000000000000  0.0000000000000000
 -0.0000000000000000  0.5000000000000000  0.0000000000000000
  0.5000000000000000 -0.0000000000000000  0.0000000000000000
  0.5000000000000000  0.5000000000000000  0.0000000000000000
  0.2500000000000000  0.2500000000000000  0.0000000000000000
  0.2500000000000000  0.7500000000000000  0.0000000000000000
  0.7500000000000000  0.2500000000000000  0.0000000000000000
  0.7500000000000000  0.7500000000000000  0.0000000000000000
  0.3750000000000000  0.1250000000000000  0.6841518443588855
  0.3750000000000000  0.6250000000000000  0.6841518443588855
  0.8750000000000000  0.1250000000000000  0.6841518443588855
  0.8750000000000000  0.6250000000000000  0.6841518443588855
  0.1250000000000000  0.3750000000000000  0.3158481556411143
  0.1250000000000000  0.8750000000000000  0.3158481556411143
  0.6250000000000000  0.3750000000000000  0.3158481556411143
  0.6250000000000000  0.8750000000000000  0.3158481556411143
 
  0.00000000E+00  0.00000000E+00  0.00000000E+00
  0.00000000E+00  0.00000000E+00  0.00000000E+00
  0.00000000E+00  0.00000000E+00  0.00000000E+00
  0.00000000E+00  0.00000000E+00  0.00000000E+00
  0.00000000E+00  0.00000000E+00  0.00000000E+00
  0.00000000E+00  0.00000000E+00  0.00000000E+00
  0.00000000E+00  0.00000000E+00  0.00000000E+00
  0.00000000E+00  0.00000000E+00  0.00000000E+00
  0.00000000E+00  0.00000000E+00  0.00000000E+00
  0.00000000E+00  0.00000000E+00  0.00000000E+00
  0.00000000E+00  0.00000000E+00  0.00000000E+00
  0.00000000E+00  0.00000000E+00  0.00000000E+00
  0.00000000E+00  0.00000000E+00  0.00000000E+00
  0.00000000E+00  0.00000000E+00  0.00000000E+00
  0.00000000E+00  0.00000000E+00  0.00000000E+00
  0.00000000E+00  0.00000000E+00  0.00000000E+00
