CoNiV                                   
   3.65650000000000     
     1.1715626513475486    0.0000000000000000   -0.0020210058338443
     0.0000000000000000    1.3463064497652215    0.0000000000000000
    -0.0028628904357557    0.0000000000000000    1.6560872909490802
   Co   Ni
     6     6
Direct
  0.8343959641454362  0.2500000000000000  0.3380370492844520
  0.8343959641454362  0.7500000000000000  0.3380370492844520
  0.1647207374092474  0.2500000000000000  0.6639715477590471
  0.1647207374092474  0.7500000000000000  0.6639715477590471
  0.6673276445204763  0.0000000000000000  0.6647424310954690
  0.6673276445204763  0.5000000000000000  0.6647424310954690
  0.5006717824947629  0.2500000000000000  0.9987747243353127
  0.5006717824947629  0.7500000000000000  0.9987747243353127
  0.9997437513223133  0.0000000000000000  0.9986901932294714
  0.9997437513223133  0.5000000000000000  0.9986901932294714
  0.3331401201077639  0.0000000000000000  0.3357840542962478
  0.3331401201077639  0.5000000000000000  0.3357840542962478
 
  0.00000000E+00  0.00000000E+00  0.00000000E+00
  0.00000000E+00  0.00000000E+00  0.00000000E+00
  0.00000000E+00  0.00000000E+00  0.00000000E+00
  0.00000000E+00  0.00000000E+00  0.00000000E+00
  0.00000000E+00  0.00000000E+00  0.00000000E+00
  0.00000000E+00  0.00000000E+00  0.00000000E+00
  0.00000000E+00  0.00000000E+00  0.00000000E+00
  0.00000000E+00  0.00000000E+00  0.00000000E+00
  0.00000000E+00  0.00000000E+00  0.00000000E+00
  0.00000000E+00  0.00000000E+00  0.00000000E+00
  0.00000000E+00  0.00000000E+00  0.00000000E+00
  0.00000000E+00  0.00000000E+00  0.00000000E+00
