Fe9 Pt3                                 
   1.00000000000000     
     3.7080377002709763    0.0000000000000000    0.0000000000000000
     0.0000000000000000    3.7076717652281657    0.0000000000000000
     0.0000000000000000    0.0000000000000000   11.2014772217359102
  Fe              Pt            
     9     3
Direct
  0.0000000000000000  0.5000000000000000  0.1666903984485799
  0.0000000000000000  0.5000000000000000  0.4997414539976717
  0.0000000000000000  0.5000000000000000  0.8335769877140393
  0.5000000000000000  0.5000000000000000  0.9928235795355818
  0.5000000000000000  0.5000000000000000  0.3405568891135573
  0.5000000000000000  0.5000000000000000  0.6666069074803715
  0.5000000000000000  0.0000000000000000  0.1666902182426924
  0.5000000000000000  0.0000000000000000  0.4998224714930046
  0.5000000000000000  0.0000000000000000  0.8334952085222298
  0.0000000000000000  0.0000000000000000  0.0047607934510552
  0.0000000000000000  0.0000000000000000  0.3285886435171932
  0.0000000000000000  0.0000000000000000  0.6666464484840233
 
  0.00000000E+00  0.00000000E+00  0.00000000E+00
  0.00000000E+00  0.00000000E+00  0.00000000E+00
  0.00000000E+00  0.00000000E+00  0.00000000E+00
  0.00000000E+00  0.00000000E+00  0.00000000E+00
  0.00000000E+00  0.00000000E+00  0.00000000E+00
  0.00000000E+00  0.00000000E+00  0.00000000E+00
  0.00000000E+00  0.00000000E+00  0.00000000E+00
  0.00000000E+00  0.00000000E+00  0.00000000E+00
  0.00000000E+00  0.00000000E+00  0.00000000E+00
  0.00000000E+00  0.00000000E+00  0.00000000E+00
  0.00000000E+00  0.00000000E+00  0.00000000E+00
  0.00000000E+00  0.00000000E+00  0.00000000E+00
