ALGO = All
EDIFF = 1e-06
EDIFFG = -0.01
ENCUT = 520
GGA = Pe
IBRION = 2
ISIF = 4
ISMEAR = 1
ISPIN = 2
KPAR = 4
LCHARG = True
LORBIT = 11
LREAL = False
LWAVE = False
MAGMOM = 1*-2.535 1*2.781 1*2.78 1*2.632 1*2.633 1*2.791 1*0.025 1*2.705 1*2.704 2*0.111 1*0.297
NELM = 200
NSW = 100
PREC = Accurate
SIGMA = 0.2
