ALGO = Normal
EDIFF = 1e-06
EDIFFG = -0.01
ENCUT = 520
GGA = Pe
IBRION = -1
ISIF = 4
ISMEAR = -5
ISPIN = 2
KPAR = 4
LCHARG = True
LORBIT = 11
LREAL = False
LWAVE = False
MAGMOM = 1*-2.387 1*2.617 1*2.618 1*2.542 1*2.541 1*2.729 1*-2.387 1*2.618 1*2.619 2*0.052 1*0.293
NELM = 200
NSW = 0
PREC = Accurate
SIGMA = 0.2
