Fe8 Se8                                 
   1.00000000000000     
     4.9359306474210163   -4.9959698315257732    1.1081538232224433
     4.6958142719800948    4.8514185811464525    0.9145648525590483
     1.0948353918613316   -0.1512495816758927    6.3702922308579488
   Fe   Se
     8     8
Direct
  0.9582725387221991  0.0001587761892449  0.9997026014634652
  0.0417274612778010  0.4998412238107621  0.0002973985365348
  0.4582725387221990  0.0001587761892449  0.9997026014634652
  0.5417274612778009  0.4998412238107621  0.0002973985365348
  0.2500000000000000  0.2500000000000000 -0.0000000000000000
  0.2500000000000000  0.7500000000000000 -0.0000000000000000
  0.7500000000000000  0.2500000000000000 -0.0000000000000000
  0.7500000000000000  0.7500000000000000 -0.0000000000000000
  0.2612995567527644  0.0594211241492190  0.7323445449333611
  0.3794491824499760  0.5592822349673343  0.7328670062544710
  0.7612995567527574  0.0594211241492190  0.7323445449333611
  0.8794491824499829  0.5592822349673343  0.7328670062544710
  0.2387004432472355  0.4405788758507811  0.2676554550666460
  0.1205508175500241  0.9407177650326657  0.2671329937455363
  0.7387004432472426  0.4405788758507811  0.2676554550666460
  0.6205508175500171  0.9407177650326657  0.2671329937455363
 
  0.00000000E+00  0.00000000E+00  0.00000000E+00
  0.00000000E+00  0.00000000E+00  0.00000000E+00
  0.00000000E+00  0.00000000E+00  0.00000000E+00
  0.00000000E+00  0.00000000E+00  0.00000000E+00
  0.00000000E+00  0.00000000E+00  0.00000000E+00
  0.00000000E+00  0.00000000E+00  0.00000000E+00
  0.00000000E+00  0.00000000E+00  0.00000000E+00
  0.00000000E+00  0.00000000E+00  0.00000000E+00
  0.00000000E+00  0.00000000E+00  0.00000000E+00
  0.00000000E+00  0.00000000E+00  0.00000000E+00
  0.00000000E+00  0.00000000E+00  0.00000000E+00
  0.00000000E+00  0.00000000E+00  0.00000000E+00
  0.00000000E+00  0.00000000E+00  0.00000000E+00
  0.00000000E+00  0.00000000E+00  0.00000000E+00
  0.00000000E+00  0.00000000E+00  0.00000000E+00
  0.00000000E+00  0.00000000E+00  0.00000000E+00
