Fe8 Se8
1.0
   4.9096834414723425   -4.9713212119181245    1.1173702206025746
   4.6651883301340584    4.8230243614825685    0.9272519487403239
   1.0877215001947969   -0.1474426436458602    6.4425527778583307
Fe Se
8 8
direct
   0.9580567604353121    0.0002127394493101    0.9996251708415755 Fe
   0.0419432395646879    0.4997872605506970    0.0003748291584245 Fe
   0.4580567604353121    0.0002127394493101    0.9996251708415755 Fe
   0.5419432395646879    0.4997872605506970    0.0003748291584245 Fe
   0.2500000000000000    0.2500000000000000    0.0000000000000000 Fe
   0.2500000000000000    0.7500000000000000    0.0000000000000000 Fe
   0.7500000000000000    0.2500000000000000    0.0000000000000000 Fe
   0.7500000000000000    0.7500000000000000    0.0000000000000000 Fe
   0.2601222931852618    0.0596899336315957    0.7376611478080264 Se
   0.3793733595182260    0.5594058383983693    0.7382799691729147 Se
   0.7601222931852547    0.0596899336315957    0.7376611478080264 Se
   0.8793733595182331    0.5594058383983693    0.7382799691729147 Se
   0.2398777068147382    0.4403100663684043    0.2623388521919807 Se
   0.1206266404817740    0.9405941616016307    0.2617200308270924 Se
   0.7398777068147453    0.4403100663684043    0.2623388521919807 Se
   0.6206266404817669    0.9405941616016307    0.2617200308270924 Se
