Fe8 Se8                                 
   1.00000000000000     
     4.8899852260564955   -5.8807081012719005   -0.0000000000000000
     4.8899852260564955    5.8807081012719005    0.0000000000000000
    -0.0000000000000000   -0.0000000000000000    5.9116913492303391
   Fe   Se
     8     8
Direct
 -0.0000000000000000 -0.0000000000000000  0.0000000000000000
 -0.0000000000000000  0.5000000000000000  0.0000000000000000
  0.5000000000000000 -0.0000000000000000  0.0000000000000000
  0.5000000000000000  0.5000000000000000  0.0000000000000000
  0.2500000000000000  0.2500000000000000  0.0000000000000000
  0.2500000000000000  0.7500000000000000  0.0000000000000000
  0.7500000000000000  0.2500000000000000  0.0000000000000000
  0.7500000000000000  0.7500000000000000  0.0000000000000000
  0.3750000000000000  0.1250000000000000  0.7019994056312752
  0.3750000000000000  0.6250000000000000  0.7019994056312752
  0.8750000000000000  0.1250000000000000  0.7019994056312752
  0.8750000000000000  0.6250000000000000  0.7019994056312752
  0.1250000000000000  0.3750000000000000  0.2980005943687248
  0.1250000000000000  0.8750000000000000  0.2980005943687248
  0.6250000000000000  0.3750000000000000  0.2980005943687248
  0.6250000000000000  0.8750000000000000  0.2980005943687248
 
  0.00000000E+00  0.00000000E+00  0.00000000E+00
  0.00000000E+00  0.00000000E+00  0.00000000E+00
  0.00000000E+00  0.00000000E+00  0.00000000E+00
  0.00000000E+00  0.00000000E+00  0.00000000E+00
  0.00000000E+00  0.00000000E+00  0.00000000E+00
  0.00000000E+00  0.00000000E+00  0.00000000E+00
  0.00000000E+00  0.00000000E+00  0.00000000E+00
  0.00000000E+00  0.00000000E+00  0.00000000E+00
  0.00000000E+00  0.00000000E+00  0.00000000E+00
  0.00000000E+00  0.00000000E+00  0.00000000E+00
  0.00000000E+00  0.00000000E+00  0.00000000E+00
  0.00000000E+00  0.00000000E+00  0.00000000E+00
  0.00000000E+00  0.00000000E+00  0.00000000E+00
  0.00000000E+00  0.00000000E+00  0.00000000E+00
  0.00000000E+00  0.00000000E+00  0.00000000E+00
  0.00000000E+00  0.00000000E+00  0.00000000E+00
