Fe9 Pt3                                 
   1.00000000000000     
     3.6983434869969209    0.0000000000000000    0.0000000000000000
     0.0000000000000000    3.6983434869969209    0.0000000000000000
     0.0000000000000000    0.0000000000000000   11.2591662654373028
  Fe              Pt            
     9     3
Direct
  0.0000000000000000  0.5000000000000000  0.1666575801054222
  0.0000000000000000  0.5000000000000000  0.4994602288923460
  0.0000000000000000  0.5000000000000000  0.8338816600976315
  0.5000000000000000  0.5000000000000000  0.0060057858717499
  0.5000000000000000  0.5000000000000000  0.3273821173632143
  0.5000000000000000  0.5000000000000000  0.6666318057146370
  0.5000000000000000  0.0000000000000000  0.1666575801054222
  0.5000000000000000  0.0000000000000000  0.4994602288923460
  0.5000000000000000  0.0000000000000000  0.8338816600976315
  0.0000000000000000  0.0000000000000000  0.9976519298637712
  0.0000000000000000  0.0000000000000000  0.3356422437665501
  0.0000000000000000  0.0000000000000000  0.6666871792292568
 
  0.00000000E+00  0.00000000E+00  0.00000000E+00
  0.00000000E+00  0.00000000E+00  0.00000000E+00
  0.00000000E+00  0.00000000E+00  0.00000000E+00
  0.00000000E+00  0.00000000E+00  0.00000000E+00
  0.00000000E+00  0.00000000E+00  0.00000000E+00
  0.00000000E+00  0.00000000E+00  0.00000000E+00
  0.00000000E+00  0.00000000E+00  0.00000000E+00
  0.00000000E+00  0.00000000E+00  0.00000000E+00
  0.00000000E+00  0.00000000E+00  0.00000000E+00
  0.00000000E+00  0.00000000E+00  0.00000000E+00
  0.00000000E+00  0.00000000E+00  0.00000000E+00
  0.00000000E+00  0.00000000E+00  0.00000000E+00
