ALGO = All
EDIFF = 1e-06
EDIFFG = -0.01
ENCUT = 520
GGA = Pe
IBRION = 2
ISIF = 4
ISMEAR = 1
ISPIN = 2
KPAR = 4
LCHARG = True
LORBIT = 11
LREAL = False
LWAVE = False
MAGMOM = 1*-2.592 1*2.578 1*2.575 1*-2.632 1*-2.633 1*2.773 1*-2.592 1*2.578 1*2.575 2*-0.086 1*0.237
NELM = 200
NSW = 100
PREC = Accurate
SIGMA = 0.2
