ALGO = Normal
EDIFF = 1e-06
EDIFFG = -0.01
ENCUT = 520
GGA = Pe
IBRION = -1
ISIF = 4
ISMEAR = -5
ISPIN = 2
KPAR = 4
LCHARG = True
LORBIT = 11
LREAL = False
LWAVE = False
MAGMOM = 1*-2.554 1*2.521 1*2.522 2*-2.585 1*2.72 1*-2.554 1*2.521 1*2.522 1*-0.089 1*-0.09 1*0.234
NELM = 200
NSW = 0
PREC = Accurate
SIGMA = 0.2
