Fe9 Pt3                                 
   1.00000000000000     
     3.6543214746532771    0.0000000000000000    0.0000000000000000
     0.0000000000000000    3.6543214746532771    0.0000000000000000
     0.0000000000000000    0.0000000000000000   11.0827673163444960
  Fe              Pt            
     9     3
Direct
  0.0000000000000000  0.5000000000000000  0.1666441304223838
  0.0000000000000000  0.5000000000000000  0.4994874237765927
  0.0000000000000000  0.5000000000000000  0.8338684888222119
  0.5000000000000000  0.5000000000000000  0.0039198925316413
  0.5000000000000000  0.5000000000000000  0.3293955958754680
  0.5000000000000000  0.5000000000000000  0.6666900538077343
  0.5000000000000000  0.0000000000000000  0.1666441304223838
  0.5000000000000000  0.0000000000000000  0.4994874237765927
  0.5000000000000000  0.0000000000000000  0.8338684888222119
  0.0000000000000000  0.0000000000000000  0.9978293549888946
  0.0000000000000000  0.0000000000000000  0.3354800333666006
  0.0000000000000000  0.0000000000000000  0.6666849833872348
 
  0.00000000E+00  0.00000000E+00  0.00000000E+00
  0.00000000E+00  0.00000000E+00  0.00000000E+00
  0.00000000E+00  0.00000000E+00  0.00000000E+00
  0.00000000E+00  0.00000000E+00  0.00000000E+00
  0.00000000E+00  0.00000000E+00  0.00000000E+00
  0.00000000E+00  0.00000000E+00  0.00000000E+00
  0.00000000E+00  0.00000000E+00  0.00000000E+00
  0.00000000E+00  0.00000000E+00  0.00000000E+00
  0.00000000E+00  0.00000000E+00  0.00000000E+00
  0.00000000E+00  0.00000000E+00  0.00000000E+00
  0.00000000E+00  0.00000000E+00  0.00000000E+00
  0.00000000E+00  0.00000000E+00  0.00000000E+00
