ALGO = All
EDIFF = 1e-06
EDIFFG = -0.01
ENCUT = 520
GGA = Pe
IBRION = 2
ISIF = 4
ISMEAR = 1
ISPIN = 2
KPAR = 4
LCHARG = True
LORBIT = 11
LREAL = False
LWAVE = False
MAGMOM = 1*-2.499 1*2.455 1*2.454 1*-2.535 1*-2.536 1*2.671 1*-2.499 1*2.455 1*2.454 2*-0.091 1*0.226
NELM = 200
NSW = 100
PREC = Accurate
SIGMA = 0.2
