ALGO = All
EDIFF = 1e-06
EDIFFG = -0.01
ENCUT = 520
GGA = Pe
IBRION = 2
ISIF = 4
ISMEAR = 1
ISPIN = 2
KPAR = 4
LCHARG = True
LORBIT = 11
LREAL = False
LWAVE = False
MAGMOM = 1*-2.459 1*2.382 1*2.38 1*-2.473 1*-2.475 1*2.575 1*-2.459 1*2.382 1*2.38 2*-0.092 1*0.214
NELM = 200
NSW = 100
PREC = Accurate
SIGMA = 0.2
